80
Lattice="5.89492703917868 0.0 -1.462906704316693 -0.6644162166459134 11.261022162503666 -2.6773324226029014 0.0 0.0 12.60854850223868" Properties=species:S:1:pos:R:3:initial_magmoms:R:1:momenta:R:3:forces:R:3 energy=-476.4138488769531 free_energy=-476.4138488769531 stress="-0.017780089750885963 0.004082105588167906 -0.004283786751329899 0.004082105588167906 -0.028722554445266724 -0.002998328534886241 -0.004283786751329899 -0.002998328534886241 -0.03925025835633278" pbc="T T T"
Ga       1.34586837       2.40500142       2.67692535       0.10000000       0.00265839      -0.00031972       0.02191254       0.00632599      -0.00086910      -0.00351738
Ga       1.55480211       0.86416703       9.00521583       0.10000000      -0.04126401       0.02072973       0.02277423      -0.00107419      -0.01007527      -0.00443570
Ga       0.75124255       7.20152361       0.03020011       0.10000000      -0.00565948       0.00208812      -0.01224339      -0.00326916      -0.00453179       0.00064007
Ga       2.03119779       6.61701785       5.84335197       0.10000000       0.00073372       0.03799452       0.00447811       0.01377099       0.00072739      -0.01157472
Ga       4.12032568       1.80907963       0.54726174       0.10000000      -0.00888246      -0.04357122      -0.00310329      -0.00154356       0.00601853       0.00591823
Ga       4.33100240       1.68324231       6.89950065       0.10000000       0.00504635       0.00918006      -0.00624250       0.01051195      -0.00255657       0.00016932
Ga       3.52059388       6.21971493      -1.31585219       0.10000000       0.00810618      -0.01377190       0.01174231      -0.00521543       0.00207976       0.00073722
Ga       5.00150945       6.71333745       4.98405764       0.10000000       0.00032633      -0.00775726       0.00925272      -0.00582485      -0.00326696       0.00228362
Ga       1.61848111       5.13844898       2.76054824       0.10000000       0.01183462       0.01781027       0.00640770      -0.00644360       0.00011860       0.00420986
Ga      -0.03418149       4.02643997       9.60325260       0.10000000       0.02192588      -0.01887716       0.00266668      -0.00516698       0.00082162      -0.00283867
Ga      -0.63255290       9.84378093       1.69002068       0.10000000      -0.01792594      -0.00693686      -0.01066397      -0.00284387      -0.00499462      -0.00363993
Ga       2.50812167       9.57347289       7.44046198       0.10000000       0.00357022      -0.02381002      -0.01237539      -0.00562960       0.00558172      -0.00266349
Ga       4.50487031       4.77708287       2.17035837       0.10000000      -0.00598829       0.01546212       0.00169731      -0.00685629       0.00179988      -0.00675662
Ga       2.82034170       4.01056963       8.73708727       0.10000000       0.00059887       0.00306844      -0.00757527      -0.00211528       0.00408079       0.00981053
Ga       2.03864729      10.92547535      -0.20705521       0.10000000       0.00062408       0.01770073       0.00061768       0.00536361       0.00997472      -0.00413159
Ga       5.39136379       9.58533516       6.52657860       0.10000000       0.01381621       0.00749822      -0.00225670       0.00433125       0.00108492       0.00169053
Ga      -0.67267214       4.03480841       0.37127781       0.10000000       0.00976184       0.00802573       0.00032219       0.00513259      -0.00035638      -0.00020099
Ga       0.56648333       3.61286393       6.35193503       0.10000000       0.01636062      -0.01059781      -0.03399344      -0.01201570      -0.00875936       0.00285713
Ga       0.17174026       9.36818800      -1.67109177       0.10000000       0.00287018       0.01998339      -0.01213994      -0.00282227       0.00514793       0.00505797
Ga      -0.98551867       9.93696052       5.06604793       0.10000000       0.01627116       0.00550526      -0.00738846      -0.00689787       0.00048791      -0.00184371
Ga       2.12275623       3.94651355      -0.41927372       0.10000000      -0.00346485       0.00767537      -0.01442962       0.00747910       0.00169495       0.00465900
Ga       3.42111402       3.77701541       5.21588056       0.10000000       0.00240715      -0.00176127      -0.01434079       0.00608478      -0.00538964      -0.02046601
Ga       3.30832410       9.27231646      -2.19033741       0.10000000      -0.01785989      -0.00959875       0.00777958      -0.00807428       0.00622275      -0.00268646
Ga       2.06053910       9.72046617       4.63205920       0.10000000      -0.00553704       0.01641608      -0.01019329       0.00528131       0.00145491       0.00211689
Ga       1.93848413       0.64764018       5.55966789       0.10000000      -0.00622221      -0.00477391      -0.01146162      -0.01549402       0.00343413       0.00689772
Ga       4.68082999       1.27192365      10.02426594       0.10000000       0.02239227       0.01334995      -0.03561786       0.00428823       0.00200723       0.00822686
Ga       3.05852668       8.01741448       2.23412662       0.10000000      -0.02799160       0.00242451       0.01514224       0.00522819       0.00637730       0.00173654
Ga       1.27727513       7.09195648       9.04192734       0.10000000       0.01370956      -0.00111346       0.00585879      -0.00325808      -0.00171196       0.00362592
Ga       4.73667734       1.59335630       3.45416685       0.10000000       0.01562464      -0.01963351       0.00761961      -0.00633807       0.00448333      -0.01497707
Ga       7.80740867       0.36959343      10.68816125       0.10000000       0.00848051      -0.01455445       0.01591121      -0.00362524      -0.00180027      -0.00748333
Ga       6.02056792       7.74017577       1.92446622       0.10000000      -0.00210455      -0.00004996       0.01584285      -0.00751378      -0.00538600       0.00416904
Ga       4.28391813       7.09458485       8.28842592       0.10000000       0.01767079      -0.01087465       0.01856395       0.00697562       0.00641838       0.00089080
O        0.49736812       1.76463292       5.83060535       0.00000000      -0.00067844       0.00417632       0.00456957       0.01196593       0.00347136       0.00361329
O        2.43232325       2.10946973      12.31685425       0.00000000       0.00589336      -0.00829454       0.00179814       0.00093812      -0.01270939      -0.00158592
O        1.77315937       7.81458254       4.44689913       0.00000000      -0.00243760      -0.00032329       0.00385683       0.00538979      -0.00848114       0.00228843
O        0.18127128       7.40022179      10.66917214       0.00000000       0.00892730      -0.00530929      -0.00166119       0.00266539       0.00339080      -0.00077207
O        3.52466595       1.67990091       5.14876695       0.00000000       0.00067803      -0.00829669      -0.00751465       0.00980865       0.00184616       0.00520495
O        5.13754327       2.10243613      11.56652590       0.00000000       0.00002815      -0.00037542       0.00127104      -0.00418432      -0.01431385      -0.00894168
O        4.88740016       7.94763456       3.61925947       0.00000000       0.00005189       0.00308253       0.00896637      -0.00176102      -0.00627193       0.00299132
O        3.08807572       7.37507840       9.90495452       0.00000000      -0.00990391       0.00196163       0.00398905      -0.00059089      -0.00634307       0.00575666
O        0.40566017       4.02748599      -1.16514457       0.00000000       0.00495804       0.01699511      -0.00144648      -0.00213996      -0.00000527       0.00008993
O        1.85187601       3.73969066       4.02731113       0.00000000       0.00744452       0.00072280       0.00772114       0.00314784       0.00478950       0.01097549
O        1.23489004       9.38933983      -3.56645874       0.00000000       0.00015517       0.00243120      -0.00604442       0.00455417      -0.00822084       0.00574210
O        0.26181433       9.91539819       3.63655441       0.00000000      -0.00041063      -0.00472043       0.01000059       0.00453345       0.00048450      -0.00350671
O        3.37707455       4.37041995      -1.89758981       0.00000000      -0.00922764       0.00302637       0.00454269       0.00511141       0.00624758       0.00223089
O        4.71047138       3.67307485       3.68262269       0.00000000      -0.00822210      -0.00539942      -0.00136029       0.00334354      -0.00252768       0.00064951
O        4.25509646       9.24837665      -4.15869573       0.00000000      -0.00971416       0.00198950       0.00145296       0.00063669      -0.00118195       0.00134254
O        3.10474956       9.78067786       3.04397234       0.00000000      -0.00246594      -0.00492858      -0.00587725      -0.00173773       0.00485550      -0.00203681
O        1.12998770       3.88380578       1.43937201       0.00000000       0.00564647       0.00609230       0.00468338      -0.00363725      -0.00357533      -0.00030142
O       -0.73347643       3.43300503       7.76680006       0.00000000      -0.00197569      -0.00262623       0.01111207       0.00211315       0.00008713      -0.00600253
O       -0.81932629       9.02332546      -0.03936966       0.00000000       0.00358985       0.00913924       0.00098571       0.01552801       0.00430135      -0.00114472
O        0.75587148       9.79120819       6.39016827       0.00000000      -0.00580430      -0.00416712      -0.00483641       0.00270275      -0.00151506      -0.00005583
O        4.05620291       3.91932240       0.61026649       0.00000000      -0.00531463       0.00041174      -0.00402883       0.00792624       0.00176659       0.00785878
O        2.39310167       3.59899630       6.82282524       0.00000000      -0.00284920       0.01190528       0.00609857      -0.00294437      -0.00247790       0.00012252
O        1.96831923       9.03723479      -0.78939279       0.00000000       0.00394173      -0.00478221       0.00654544       0.00366620      -0.00418705       0.00221638
O        3.59422490       9.57835577       5.83209018       0.00000000      -0.00310567      -0.00563068      -0.00075479      -0.00398064      -0.00301799      -0.00838308
O        2.99754915       1.63143587       2.39419851       0.00000000      -0.00718820      -0.00616162      -0.00209028       0.00010180      -0.00336662       0.00021206
O        1.48251098       2.68114469       9.27735210       0.00000000       0.00074016       0.00234925      -0.01685910       0.00018043       0.00587538       0.00260140
O        1.22340975       7.94021636       1.74551924       0.00000000      -0.00337558      -0.00258423      -0.01116247       0.00257799       0.00365540      -0.01145513
O        2.43964871       7.51897921       7.44345697       0.00000000      -0.01205218       0.00913527      -0.00629591       0.01101501      -0.00353718       0.00033472
O        5.59503190       1.82442667       1.70509747       0.00000000      -0.00066525       0.00466104       0.00264725      -0.00735837       0.00167666       0.00926954
O        4.34526611       2.48413127       8.62599422       0.00000000       0.00382167      -0.00006653       0.01089746      -0.00474423       0.00024638      -0.00587841
O        4.43209240       8.21661192       0.97206810       0.00000000      -0.00245499      -0.00356319       0.00812640      -0.00366459      -0.00163987       0.00632529
O        5.41734976       7.55008789       6.64002931       0.00000000       0.01127110       0.00854420      -0.00089193      -0.00950697       0.00125648      -0.00323951
O        3.17261760       6.05931320       2.53794716       0.00000000      -0.00234535      -0.00851314      -0.00853777       0.00710800       0.00471777       0.00227953
O        1.31291803       5.25678395       8.95375265       0.00000000      -0.00652240      -0.00672953       0.00335583       0.00224683       0.01086184       0.00372987
O        0.89918200      10.95240872       1.33530535       0.00000000       0.00437434      -0.01584517       0.00272253      -0.00076334      -0.00247937       0.00212681
O        2.37717459      11.54622278       7.55965803       0.00000000      -0.00956205      -0.00602383      -0.00158454       0.00019184       0.00028565      -0.00063321
O        5.96911515       5.86192006       1.91861261       0.00000000       0.00412048      -0.00063482      -0.00118412       0.00907968      -0.00337648       0.00102446
O        4.29050993       5.23368434       8.27814400       0.00000000      -0.00341980       0.00678136       0.01443343       0.00067174      -0.00227210      -0.00823050
O        3.82759159      10.97290616       0.53196797       0.00000000       0.00114512       0.00037936       0.00376176      -0.00392234      -0.00492617       0.00016208
O        5.55108314      11.50166167       6.89058168       0.00000000       0.00906803      -0.00390038       0.00241037      -0.00422852       0.00083809      -0.00114369
O        1.12255580      -0.07193867       1.21425616       0.00000000      -0.01416033      -0.00731660      -0.00147894      -0.00207837      -0.00847463       0.00595187
O       -0.19625129       0.43842366       8.35211506       0.00000000       0.00452211      -0.00554535      -0.00451434      -0.00373048       0.00456009       0.00017883
O       -0.62026658       6.03604903       0.55911613       0.00000000       0.01430678       0.00777642       0.00109382      -0.00593792      -0.00177786      -0.00602150
O        0.54039885       5.59175399       6.14069713       0.00000000      -0.00179167      -0.00787469      -0.00247057      -0.00981635      -0.00770766      -0.00171706
O        3.65627593      -0.13743118       0.40237426       0.00000000      -0.00519294       0.00871918       0.00784608      -0.00415558       0.00057659       0.00057420
O        2.66255265       0.47573919       7.37427600       0.00000000      -0.01019029       0.00248380      -0.00054321      -0.00679009       0.00661112       0.00667281
O        2.17118216       6.00047706      -0.12833018       0.00000000       0.00440019       0.00227139      -0.01016893       0.00353987       0.00838190      -0.00567847
O        3.52398773       5.70405175       5.32570730       0.00000000      -0.00994286      -0.00233287      -0.00814625      -0.00182295       0.01328391       0.00572048
