80
Lattice="5.89492703917868 0.0 -1.462906704316693 -0.6644162166459134 11.261022162503666 -2.6773324226029014 0.0 0.0 12.60854850223868" Properties=species:S:1:pos:R:3:initial_magmoms:R:1:momenta:R:3:forces:R:3 energy=-474.3021240234375 free_energy=-474.3021240234375 stress="-0.016941139474511147 0.013362412340939045 -0.012223505415022373 0.013362412340939045 -0.03242144733667374 0.008556867949664593 -0.012223505415022373 0.008556867949664593 -0.07156959921121597" pbc="T T T"
Ga       2.56560802       1.17343173      -0.16821657       0.10000000       0.01590729       0.00125198       0.00067981      -0.00140665      -0.00014923       0.00917947
Ga       1.73209778       2.72202072       7.72398661       0.10000000       0.00123621       0.00011177       0.00297948      -0.00516281      -0.00365947      -0.00161143
Ga       2.26564552       6.72356118      -1.68370006       0.10000000      -0.00453996       0.00353595      -0.01142951       0.00182417       0.00701123       0.00361193
Ga       1.57396132       7.87874343       6.83607056       0.10000000      -0.04215166      -0.02142032      -0.00558139      -0.01038215      -0.00182513      -0.00826174
Ga       5.69388109       1.03689494      -1.09468129       0.10000000      -0.00823687       0.00518927      -0.01570389       0.00659290      -0.00687226       0.00600180
Ga       4.56889416       2.67278709       7.06097700       0.10000000      -0.00103706      -0.01203192      -0.02266800      -0.00086233      -0.00142349       0.00694010
Ga       5.37787599       6.67742847      -2.25067983       0.10000000       0.00103597       0.01803930      -0.00420954      -0.00688268      -0.00413366       0.00651391
Ga       4.00554113       8.62836436       5.81181377       0.10000000      -0.01321211      -0.01118995       0.01009111       0.00739497      -0.00500606      -0.02263692
Ga       0.38416823       3.14483207       2.83412174       0.10000000      -0.00699589      -0.00509188       0.01260602      -0.00374906       0.00356454       0.00071175
Ga       0.74597307       3.62080403      11.04674867       0.10000000       0.00862472       0.02422070      -0.02319196       0.00200364      -0.00270436      -0.00220632
Ga       0.30028938      10.25852976       2.16608190       0.10000000       0.01125326       0.00254757       0.02819976      -0.00476381       0.00021735       0.00414298
Ga       0.43909724       9.86972937       8.67909636       0.10000000      -0.00563127      -0.01603586       0.00576967      -0.01011530      -0.00533260       0.00040263
Ga       3.67413667       4.48159096       2.85073732       0.10000000       0.00167607       0.03388382      -0.00560577       0.00244165       0.00716034      -0.00041485
Ga       3.53457298       1.22909627       9.79974036       0.10000000      -0.00948231      -0.01259264       0.00036749       0.00155788      -0.00368899      -0.00310868
Ga       4.59331418       7.34648671       0.77577045       0.10000000       0.03315460      -0.01502781      -0.00940747      -0.00527851      -0.00028751      -0.00201230
Ga       3.59316195       9.04998099       9.37845167       0.10000000      -0.02898530      -0.01064088       0.00084599       0.00278720       0.00267962       0.00231675
Ga       1.55501205       5.31448995       1.17072159       0.10000000      -0.00777047       0.01552639       0.00476004       0.01267300       0.00481461       0.00446656
Ga      -0.06830020       5.00296271       6.93915903       0.10000000       0.02568272       0.00574171      -0.00094341      -0.00059227       0.00616864       0.00351691
Ga       1.00405958       9.50780783      -0.95418631       0.10000000       0.00076225       0.00399177      -0.00563305       0.00438768       0.00542343      -0.00526349
Ga      -0.45141364       9.01253454       4.94805772       0.10000000      -0.01987617       0.00924062       0.00822175      -0.00083895      -0.00080815       0.00583622
Ga       4.08780071       4.24984860      -0.68216896       0.10000000       0.00293836      -0.02444547      -0.00718201       0.00631805       0.00147300       0.00282748
Ga       2.89160805       4.87430031       6.06090855       0.10000000       0.01506413       0.00486373       0.01847689       0.00106313      -0.00885913      -0.00522385
Ga       4.06885449      11.53095248      -1.25066757       0.10000000      -0.00658872       0.01274050       0.01315516       0.00323333       0.00032125      -0.00660804
Ga       3.36717116      10.26155277       1.45641242       0.10000000      -0.01933209      -0.01071662      -0.01286273      -0.00484185       0.00778658       0.00238600
Ga       2.34541156       1.31135708       3.36787476       0.10000000       0.01436500       0.01229350       0.02191145      -0.01909806       0.01254941       0.00342909
Ga       3.06701159      -0.28964289       7.31099565       0.10000000       0.02369459      -0.02142475       0.03973048       0.00495466       0.00276655      -0.01665366
Ga       0.61039006       6.12558639       4.16752526       0.10000000       0.02024058      -0.00112985       0.00482068      -0.00309986      -0.00024641      -0.00203160
Ga      -0.93080589       6.78047983       9.03973002       0.10000000      -0.01010767      -0.00143947       0.00866566       0.00504896       0.00332781       0.00500529
Ga       5.51204588       1.90276402       4.03182332       0.10000000      -0.01176751       0.01218491       0.00877971       0.00619887       0.00585763      -0.00877894
Ga       6.30658410       0.58014328       8.02684666       0.10000000       0.01442112       0.01879600       0.03179602       0.00669569      -0.00448595       0.00115098
Ga       2.24533785       8.04416599       2.96916440       0.10000000       0.02210247       0.01831761      -0.01806433       0.00574611      -0.00637835       0.00632658
Ga       3.37778740       4.71959366       9.05895838       0.10000000      -0.00726185      -0.01391844      -0.03376220       0.00619087      -0.00672936      -0.00656156
O        1.05979635       0.98404222       4.81166273       0.00000000      -0.00037183      -0.00121183       0.00601426      -0.00133565       0.00190365       0.00004091
O        1.08717451       2.37523936      12.41042567       0.00000000       0.00440498      -0.00020389      -0.01685065       0.00343312       0.00134015      -0.00482675
O        1.01200128       7.84435745       4.89781022       0.00000000      -0.00315609       0.00471629      -0.00470191       0.00476167       0.00284924       0.00461865
O        0.50217694       6.51010851      10.17390336       0.00000000      -0.00266526       0.00788967       0.00232193      -0.00467723       0.00049178       0.00833257
O        3.97437989       0.91813179       4.21069532       0.00000000       0.00024338       0.00473099      -0.00708648       0.01219992      -0.00988917       0.00336331
O        3.99462888       2.22083864      11.54570906       0.00000000       0.00471859       0.00066618      -0.00793322      -0.00181772       0.00267527      -0.00029137
O        3.89186406       8.14886152       3.99529971       0.00000000       0.00098322      -0.00624645      -0.00393593      -0.00213784      -0.00512169       0.01050539
O        3.64723119       6.64721170       9.27934283       0.00000000      -0.01133250      -0.00114381       0.00013918       0.00577383       0.00768927      -0.00571891
O        5.08651342       4.54688531      -2.44489988       0.00000000       0.00578886       0.00208795       0.00462991      -0.00114390      -0.00393429       0.00817466
O        1.09788824       4.97268368       5.44376174       0.00000000       0.00465776       0.00506214       0.00419397       0.00215244       0.00091559      -0.00170107
O        0.61380470      10.83390157      -2.31581038       0.00000000      -0.00748932      -0.00436903       0.00093191      -0.00226901       0.00253420       0.01119189
O        2.09258804      10.06612621       3.05687071       0.00000000       0.00559258      -0.00341608       0.01002570       0.00111451       0.00621636       0.00186306
O        8.29979318       4.59939402      -3.25022362       0.00000000       0.00995420       0.00524372      -0.00549901      -0.00246456      -0.00040507       0.00515077
O        4.10192129       4.98735775       4.61533419       0.00000000      -0.00173917      -0.00423220       0.00318975       0.00597432       0.00505519      -0.00331905
O        3.65429576      10.95927617      -3.02327977       0.00000000       0.00106294       0.00588165       0.00105535      -0.00151667       0.00582749      -0.00191487
O        5.13989684      10.36292991       2.35974499       0.00000000      -0.00485916      -0.00105155       0.00046397      -0.00463535       0.00505140      -0.00250480
O       -0.00975367       4.36721623       1.55457886       0.00000000      -0.00536939      -0.00166168      -0.00530555      -0.00620046      -0.00692274       0.00173032
O       -0.07074505       2.92925777       7.01011251       0.00000000       0.00342699      -0.00063626      -0.00550839       0.00095546      -0.00096288       0.00250575
O       -0.61892612       8.61063734      -0.85851631       0.00000000      -0.00318165      -0.00724048      -0.00385115      -0.00789906      -0.00424737      -0.00104813
O       -0.27164497       9.78160915       6.78194547       0.00000000      -0.00460349       0.00368904      -0.00518684       0.00051020       0.00528194       0.00468189
O        3.09210292       4.33059709       0.96385283       0.00000000      -0.00304920       0.00528507      -0.00214524      -0.00408971       0.00044584      -0.00419939
O        2.90427403       2.91942311       6.21306078       0.00000000       0.00209137       0.00176633       0.00322934       0.00818294      -0.00064783       0.00336942
O        2.47246370       8.61142033      -1.65187821       0.00000000      -0.00297458       0.00735416      -0.00575176       0.00595915       0.00082265       0.00389794
O        2.53329481       9.72522755       5.98528279       0.00000000       0.00834932      -0.00614995       0.00337016      -0.00504257      -0.00452550       0.00625724
O        2.16026302       3.21922019       3.28588192       0.00000000       0.00795757      -0.00068456       0.00007986       0.00027621      -0.00339674       0.00178079
O        0.44652157       2.61082285       9.50443739       0.00000000       0.00252890      -0.00424519       0.00375219       0.00390706       0.00669211      -0.00221747
O        3.17740550       8.35209497       1.36357447       0.00000000      -0.00595502      -0.00281964      -0.00779491       0.00453356      -0.00545746       0.00044568
O        1.91003897       8.78965730       8.42464201       0.00000000      -0.00347609      -0.01274930       0.00298321       0.00267470       0.00672545      -0.00360110
O        5.07309915       3.17504557       2.73474910       0.00000000      -0.00006508      -0.00370388      -0.00324995       0.00860220      -0.00357733      -0.00297248
O        3.46220327       2.77620574       8.78931023       0.00000000       0.00034435       0.00060477      -0.00576913      -0.00246140       0.00783259      -0.00187007
O        6.22727001       8.25894420       0.86610154       0.00000000      -0.00551235       0.00180931       0.00260728      -0.00209890      -0.00374168      -0.00205593
O        4.75738043       8.77214912       7.63851368       0.00000000      -0.00550251       0.00342840       0.00028298       0.00062444      -0.00157963       0.00351506
O        1.99576750       6.07515342       2.87935537       0.00000000       0.00971827      -0.00275475       0.00148300      -0.00217584      -0.00014913       0.00639273
O        1.81718995       4.68576218       7.90139497       0.00000000      -0.00095908      -0.00929012      -0.00726168       0.00129392       0.00145927      -0.00473061
O       -1.43301414      10.19067662       1.31302006       0.00000000      -0.00346480      -0.00352422      -0.00006383      -0.00517293      -0.00089169      -0.00260380
O        1.40461599      11.69079903       7.97576535       0.00000000       0.00387508      -0.01134727       0.00043230      -0.00367820      -0.00287185      -0.00881249
O        4.80905530       6.03879257       2.12217319       0.00000000       0.00407231       0.00287014       0.00733639      -0.00744623       0.00056399       0.00277262
O        4.59011190       4.81659010       7.25025332       0.00000000      -0.00280791      -0.00280902      -0.00118942      -0.00067131      -0.01277629      -0.00477037
O        1.47299295      10.46703458       0.56112436       0.00000000       0.00262475      -0.01003388       0.00306652       0.00418903      -0.00248529      -0.00092989
O        4.56848414      11.71859506       7.06184922       0.00000000      -0.00484136      -0.00004833      -0.00372948       0.00520748      -0.00243306      -0.00080960
O        0.24281315       1.35723094       2.24053813       0.00000000       0.00564955      -0.00487958       0.00088651      -0.00798973      -0.00623772      -0.00227384
O       -1.28650661       0.75515079       8.61277438       0.00000000      -0.00015376      -0.00267908      -0.00869506      -0.00986929      -0.00051062      -0.00467938
O        4.12708728       6.39022334      -0.75599914       0.00000000       0.00294536       0.00631050       0.00024957       0.00579147      -0.00164910      -0.00378409
O       -0.00452227       6.91609118       7.32734147       0.00000000      -0.00783736       0.00126263       0.00233615       0.00575504      -0.00097618      -0.00893493
O        3.16301846       1.20203045       1.59978281       0.00000000      -0.00797369      -0.00305805      -0.00298197      -0.00321473      -0.00207303       0.00473642
O        1.74598701       0.82242981       8.03259665       0.00000000       0.00589457       0.00541022       0.00255805      -0.00753880       0.00503887       0.00489821
O        7.13587319       6.61943096      -1.47571043       0.00000000      -0.00016591       0.01216754       0.00203720      -0.00678128       0.00646570      -0.00120667
O        3.16291810       6.93865782       6.50651229       0.00000000      -0.00656074      -0.00141795      -0.00077694       0.00041726      -0.00494704      -0.00184074
