80
Lattice="6.088628873886923 0.0 -1.5109764617114532 -0.6862483172501906 11.631048905679616 -2.7653070826682957 0.0 0.0 13.022853711049503" Properties=species:S:1:pos:R:3:initial_magmoms:R:1:momenta:R:3:forces:R:3 energy=-470.983642578125 free_energy=-470.983642578125 stress="-0.00416201539337635 0.003567600389942527 0.009281064383685589 0.003567600389942527 -0.018689487129449844 0.0035871262662112713 0.009281064383685589 0.0035871262662112713 -0.01620638743042946" pbc="T T T"
Ga       3.30472872       0.45966947       3.84083389       0.10000000      -0.03596941       0.01691672      -0.02133427       0.00740424       0.00313203      -0.00215362
Ga       3.13294763      -1.56731190       8.54932668       0.10000000       0.00973233      -0.00811263       0.00332822      -0.00243083       0.00322287      -0.00581545
Ga       3.59829179       5.29061733      -1.89722658       0.10000000      -0.02283005       0.01506030       0.00861727      -0.00283927       0.00150482       0.00360544
Ga      -2.23748395       9.30937684       1.75222951       0.10000000      -0.00566089      -0.00870965       0.02615275       0.00563968      -0.00106792       0.00127964
Ga       4.93188135       0.05369603       0.92912042       0.10000000      -0.00397578      -0.01734253       0.04506552      -0.00277861      -0.00702325      -0.00095461
Ga       4.79342193       3.75503602       4.91016790       0.10000000       0.00476185       0.02599535       0.00793505      -0.00012588       0.00034603       0.00320156
Ga       6.71986486       5.84828941      -2.81503235       0.10000000      -0.00706454      -0.00869205      -0.01724369      -0.00347438       0.00355991       0.00015710
Ga       3.97820538       9.78603025       3.03833572       0.10000000       0.05734775       0.02962445       0.00832789      -0.00085804       0.00677800      -0.00360818
Ga       2.03661431       4.87438562       3.74314820       0.10000000      -0.02517969      -0.01276226       0.00044968      -0.00038841       0.00117556       0.00204216
Ga       0.65910447       5.37327401       8.31608920       0.10000000       0.03270464      -0.00099782       0.00461018      -0.00203846       0.00478458       0.00485948
Ga      -0.27463215       8.62507777      -3.66564607       0.10000000       0.00366626      -0.01891418      -0.01745056       0.00282048      -0.00275874      -0.00054890
Ga       2.32127733      10.55170908       8.89056413       0.10000000      -0.01066788       0.01008455       0.00919195      -0.00538404       0.00156048      -0.00178576
Ga       6.16485255       1.69586290       3.38612351       0.10000000       0.00289127       0.04330520       0.00220655      -0.00095930       0.00183764      -0.00247426
Ga       3.49338256       2.17091127      12.61591417       0.10000000      -0.01364903      -0.03591516       0.01692107      -0.00182907      -0.00111927       0.00033669
Ga       0.74212600       9.96948953       2.97773358       0.10000000       0.02894008      -0.00832096      -0.01885936       0.00121719      -0.00389627       0.00209324
Ga       2.47151804       7.60915053       8.06792147       0.10000000       0.01732294       0.00065875       0.01043815       0.00071803       0.00397772      -0.00143108
Ga      -0.92618139       4.09422131       2.75861483       0.10000000      -0.02509204       0.03028027      -0.02006871       0.00247558       0.00171885       0.00117035
Ga       0.84840056       7.53749894       5.16453829       0.10000000      -0.01096389       0.02729037       0.00312968      -0.00064205      -0.00632639       0.00020227
Ga       0.56117489      10.02204478      -0.47955233       0.10000000      -0.00023270      -0.02388134      -0.02366769      -0.00136454      -0.00197430      -0.00240958
Ga       0.48230393      12.31029286       5.27542390       0.10000000       0.02678508       0.00459507       0.00383915      -0.00571330       0.00186845       0.00418015
Ga       1.98398284       4.48324611       0.82393960       0.10000000      -0.00748356      -0.01193161      -0.01368086       0.00128692      -0.00280697       0.00349665
Ga       2.06440267       3.21562463       6.52179682       0.10000000       0.00883165      -0.00585473       0.00121933      -0.00172754       0.00034089       0.00392188
Ga       4.32712688       8.18314457      -2.40178373       0.10000000      -0.02383950      -0.00224168      -0.00006059       0.00338238       0.00018499      -0.00270261
Ga       5.00180285      11.52058267       6.63367273       0.10000000       0.00103255      -0.00580751       0.00673892      -0.00016741      -0.00373298       0.00242726
Ga       4.12892836       1.03777371       6.73649526       0.10000000       0.03586079       0.01343164      -0.00000422      -0.00845240      -0.00140987       0.00160489
Ga       1.05932203       1.82466561      14.96938622       0.10000000      -0.04136943      -0.00140224      -0.02541307      -0.00372030      -0.00592478      -0.00334853
Ga       0.16536165       7.33770187       1.67360223       0.10000000      -0.03375543      -0.00907229      -0.01597928       0.00507427      -0.00223552       0.00136963
Ga      -2.03784992       7.04730930       7.02421746       0.10000000      -0.01329102      -0.03465047       0.01110331      -0.00008790      -0.00114063      -0.00099610
Ga       9.44813419       2.18625724       7.92686645       0.10000000       0.04068898      -0.01036693       0.01227516       0.00623804       0.00244796       0.00616932
Ga       6.84091082       2.86277007       9.23640684       0.10000000       0.02648587      -0.00710114      -0.02456692       0.00246163       0.00265124       0.00155087
Ga       4.22296281       6.74733975       2.33967251       0.10000000      -0.02707812       0.00941912       0.01102623       0.00125001       0.00192222      -0.01168938
Ga       4.19752359       4.75726577       8.10807984       0.10000000       0.01250654      -0.02548391       0.01576100       0.00554377      -0.00169703       0.00414310
O        1.30003494       1.48643039       6.31116773       0.00000000       0.00086459       0.00232550       0.00102850       0.00088254       0.00176243       0.00008883
O        0.94041352       4.03003165      12.23943324       0.00000000       0.01032607      -0.00273849      -0.00943985       0.00022210       0.00146624      -0.00053817
O       -1.68236713       7.61652865       0.99838145       0.00000000      -0.00804671      -0.00040618       0.00101474       0.00072315       0.00110255      -0.00025788
O       -0.08565714       8.77173265      11.20719063       0.00000000      -0.00884841       0.00090874      -0.00476439       0.00075762      -0.00064711      -0.00099051
O        7.45434705       2.35545086       7.44552939       0.00000000       0.00653642       0.00215539      -0.00150519      -0.00085916       0.00013333       0.00027161
O        5.40456139       1.67776020       9.74635099       0.00000000       0.00491476      -0.00038479       0.00426568      -0.00122124       0.00155941      -0.00138804
O        0.60986434       9.18732156       1.22306487       0.00000000       0.01030919      -0.00765671      -0.00566574      -0.00038807      -0.00244403      -0.00018396
O        2.86092529       8.81940697       9.47693726       0.00000000      -0.00537112       0.00132557       0.00506115       0.00004885      -0.00140342       0.00038928
O        0.98017054       3.93164903       2.50550057       0.00000000      -0.00451323       0.00135816      -0.00550555      -0.00169006      -0.00080964       0.00163728
O        4.67457743       5.31479583       6.21810779       0.00000000       0.00190621      -0.00216172       0.00259580       0.00207259      -0.00129271       0.00036059
O        1.65246012       8.50991366      -6.49167780       0.00000000       0.00000804       0.00259911       0.00256006       0.00020226      -0.00088507      -0.00225767
O        2.47759925      12.17324934       5.54204792       0.00000000       0.00594033       0.00020131      -0.00082728       0.00021510       0.00032002       0.00187385
O        3.77965302       3.98345156      -3.21798884       0.00000000      -0.00082057       0.00012510       0.00533431       0.00144830      -0.00016388       0.00130630
O        5.18238631       6.93463885       4.00590377       0.00000000      -0.00241252      -0.00057637       0.00154677      -0.00151748       0.00014623      -0.00014307
O        2.80006626      11.83330487      -2.94117098       0.00000000      -0.00305797      -0.00439822       0.01032560       0.00011361      -0.00181407      -0.00004703
O        4.93189172      10.39688895       1.52348739       0.00000000       0.00753982       0.00111761      -0.00437337       0.00206378       0.00382963      -0.00231007
O       -0.84464906       2.27613876       1.86537414       0.00000000      -0.00303367       0.00292455      -0.00203413       0.00001470      -0.00072414      -0.00065953
O       -0.64422601       3.46792601       4.62236561       0.00000000       0.00090609       0.00796761       0.00045464      -0.00311953      -0.00079010       0.00066496
O       -3.72618057      10.50936756       1.43047984       0.00000000      -0.00053699       0.00294197      -0.00645760       0.00139789      -0.00037812       0.00018895
O        0.81762006      10.44279085       4.84517435       0.00000000       0.00458384       0.00050507      -0.00234085      -0.00048846       0.00109799       0.00049615
O        0.55480785       0.02599237       1.56013256       0.00000000      -0.00415142      -0.00082946       0.00153107       0.00037678      -0.00130462       0.00115993
O        2.56425101       5.70732931       7.96812148       0.00000000       0.00496689      -0.00013097       0.00084352       0.00126690       0.00162726      -0.00081656
O        0.90098677      12.93375547       0.93700331       0.00000000      -0.00224668       0.01004579      -0.00323137      -0.00101763      -0.00177883       0.00029467
O        3.41003001       8.33702035       1.94516019       0.00000000       0.00305033       0.00642398       0.00314262       0.00083479       0.00220063      -0.00121957
O        2.85103723       3.70129828       4.89018442       0.00000000       0.00072798       0.00288839       0.00057128      -0.00027501       0.00062248       0.00094471
O        2.50229234       1.88438121      11.11413478       0.00000000       0.00256019      -0.00878914      -0.00074409       0.00065160      -0.00107859       0.00050420
O        2.53108306      11.09390473       2.77755868       0.00000000       0.00631508       0.00163936      -0.00646436       0.00074786      -0.00066493      -0.00025428
O        0.64618255       7.25318623       8.54556733       0.00000000       0.00140014      -0.00014848      -0.00789517       0.00060990       0.00164561      -0.00152045
O        3.20699799       5.20055473       2.31471231       0.00000000      -0.00719678       0.00423253       0.00086471      -0.00181174       0.00088185       0.00005251
O        6.66506217       4.19705008       5.34604365       0.00000000       0.00422205       0.00131433       0.00131594      -0.00043339      -0.00022331      -0.00051679
O        4.49655723       9.89226012      -1.49394822       0.00000000       0.00459006      -0.00270419       0.00695784       0.00236642      -0.00075630      -0.00047980
O        0.67069526       8.14962756       3.43843715       0.00000000      -0.00701239       0.00032945      -0.00063543      -0.00247002      -0.00024530       0.00096947
O        3.76466305       4.35071045      -0.25327722       0.00000000      -0.00510341       0.00276274       0.00184992      -0.00092587       0.00110573      -0.00035264
O        6.10449460       4.60202584       8.38315955       0.00000000       0.00206085      -0.00050915      -0.00003420      -0.00007274       0.00138407       0.00130981
O        3.91648549      13.36530446       2.30282136       0.00000000       0.00352164       0.00990797       0.00077715       0.00052491      -0.00263034       0.00045490
O        3.44072034      10.62712773       7.34303759       0.00000000       0.00161738      -0.00012872       0.00475777      -0.00060698      -0.00165945      -0.00048004
O        5.59547186       5.95806910       1.39694323       0.00000000      -0.00763314       0.00320313      -0.00246829       0.00015116       0.00200210       0.00081415
O        8.26664967       6.39421893       9.38424560       0.00000000      -0.00440517       0.00553871      -0.00495035      -0.00044772       0.00029302      -0.00102118
O        4.06159287      12.42433818      -0.13391894       0.00000000       0.00002623       0.00327414       0.00462637       0.00060421      -0.00024031      -0.00222355
O        6.45000127      10.35724788       7.14094130       0.00000000       0.00094423      -0.00341523      -0.00553348      -0.00035997      -0.00101137      -0.00099565
O       -1.66331707      -2.45304239      -4.00234954       0.00000000       0.00282090       0.00266665      -0.00102596      -0.00076705       0.00058946       0.00046021
O       -0.43971304       0.11428553       8.93257627       0.00000000       0.00518454      -0.00042626       0.00087010      -0.00218376       0.00009020      -0.00135116
O        1.12831936       6.22505417       0.55503786       0.00000000      -0.01238916      -0.00796974      -0.00242458       0.00113274      -0.00117157      -0.00043622
O       -1.89306266       7.88970516       8.70885615       0.00000000      -0.00074306      -0.00236280      -0.00028770       0.00013009       0.00015103      -0.00016251
O        2.45910828       2.55950587       1.05994040       0.00000000      -0.00337990      -0.00228101       0.00038013      -0.00043917      -0.00118321      -0.00067998
O        3.69945442       2.91099342       7.41538234       0.00000000       0.00158394      -0.00022442       0.00219933      -0.00087768       0.00045807       0.00066322
O        4.87609321       6.37405829      -2.87398522       0.00000000      -0.00365199      -0.00012959       0.00106056      -0.00075419       0.00061202      -0.00038481
O        2.30915161       6.39557639       4.84417906       0.00000000      -0.00632907      -0.00141190       0.00266561       0.00263735       0.00031860      -0.00112750
