80
Lattice="6.246845353552716 0.0 -1.5502400433127488 -0.7040808695671109 11.933288317999477 -2.837165157922496 0.0 0.0 13.361259961790404" Properties=species:S:1:pos:R:3:initial_magmoms:R:1:momenta:R:3:forces:R:3 energy=-471.0648498535156 free_energy=-471.0648498535156 stress="0.04082391783595085 -0.00017754384316504002 -0.0016170174349099398 -0.00017754384316504002 0.010317755863070488 0.01146614644676447 -0.0016170174349099398 0.01146614644676447 0.00641601113602519" pbc="T T T"
Ga       7.44523980      -2.15747214       1.38247754       0.10000000       0.01125937       0.00213999      -0.01456575      -0.00087746      -0.00567933       0.00208827
Ga       1.50958920       7.97748256      10.55337111       0.10000000       0.00057149       0.01062702      -0.01750729       0.00113931      -0.00378275      -0.00307889
Ga       2.58259087       6.94543061      -0.32409487       0.10000000       0.00290573       0.03410731      -0.00148156       0.00467341       0.00099775      -0.00133413
Ga       4.23131437       7.55268196       4.39851147       0.10000000      -0.02586680      -0.01203792       0.00090311       0.00296118      -0.00054028      -0.00054642
Ga       6.45310710       2.82931597       2.38168402       0.10000000       0.01868897       0.00185368       0.03606788       0.00136283      -0.00621340      -0.00239933
Ga       4.21020769       0.37986512       7.90237205       0.10000000      -0.00684722      -0.00711652       0.00760889      -0.00398509      -0.00231156      -0.00367419
Ga       5.71076447       6.88500193      -0.90013007       0.10000000       0.00569240       0.03224574       0.00193416       0.00067602       0.00040720      -0.00171863
Ga       6.38211813       7.96860697       6.45922665       0.10000000      -0.01573505      -0.01703264      -0.01667140      -0.00244435       0.00730918      -0.00146921
Ga       1.62425563       5.29084108       2.52089816       0.10000000       0.01478514      -0.00323382       0.02570094      -0.00161145       0.00366007      -0.00008009
Ga       3.42963485       8.13855249       7.29725376       0.10000000       0.00188993       0.00223709       0.02501612       0.00094221       0.00085627       0.00186627
Ga       2.10347757       8.26249416       2.35310900       0.10000000       0.00708833      -0.02234392      -0.00020215       0.00011744       0.00113073       0.00280701
Ga       0.09104114      12.49406380       6.66614189       0.10000000       0.00906948       0.02474888      -0.00125778      -0.00272146       0.00332341       0.00314667
Ga       2.38302983       3.99309526      -0.46663521       0.10000000      -0.02071275       0.03126122      -0.00011393       0.00502020      -0.00206783       0.00198690
Ga       3.88372178       3.55095100       8.25027882       0.10000000       0.00697372       0.00421101       0.02382092      -0.00375500      -0.00191665      -0.00314943
Ga       6.10639398      12.01994886       0.76601149       0.10000000      -0.00607701      -0.01726161      -0.01731403      -0.00477620      -0.00188857       0.00257229
Ga       5.16999700       9.16877346       1.68626539       0.10000000      -0.00344947      -0.03194322      -0.02330814      -0.00471148       0.00376010       0.00429067
Ga      -2.16058518       5.90966186      -2.16353165       0.10000000      -0.00157860      -0.00214111       0.01811967       0.00457150      -0.00344677      -0.00214471
Ga      -0.86499954       2.52906621       7.11449446       0.10000000      -0.00541022      -0.01473523      -0.00088056      -0.00038755      -0.00088450      -0.00123441
Ga       0.44959310      13.25522279      -1.77361009       0.10000000      -0.00523764       0.02128864      -0.01090952       0.00216293       0.00053012       0.00051717
Ga       0.03304166      16.71998930       6.51806205       0.10000000      -0.00828678       0.00477039       0.01094195       0.00037986       0.00248858       0.00082930
Ga      -0.77644554      -0.70211573      -1.02670932       0.10000000       0.03073166      -0.00421330      -0.00946603      -0.00255231       0.00069337      -0.00026987
Ga       4.48111703       5.39500379       6.15650263       0.10000000      -0.04952679      -0.02144228      -0.00102895       0.00654162      -0.00078724      -0.00423401
Ga       4.26053529       9.30894283      -2.96454310       0.10000000      -0.00017721       0.01678884      -0.00635311       0.00010598      -0.00230496       0.00013274
Ga       1.39590988      10.40395108       4.55307752       0.10000000       0.00031266       0.00014881      -0.02609398      -0.00588864      -0.00206589       0.00286601
Ga       3.39191274       2.61064887       3.00788173       0.10000000      -0.00294952       0.00687999      -0.01866771      -0.00052252       0.00359365      -0.00527691
Ga       4.77779999       0.06975471      14.57235606       0.10000000       0.02440233       0.00191889      -0.01732392       0.00757206      -0.00186428      -0.00234912
Ga       1.06362011       7.17544979       5.26402166       0.10000000      -0.03308145      -0.01403307       0.01296829      -0.00335121      -0.00139755       0.00471665
Ga       1.77112364      11.01885847       9.59887601       0.10000000       0.01697758       0.02080376      -0.00738731       0.00261006      -0.00144424       0.00247324
Ga       3.69818817      -0.33974014       4.49460363       0.10000000       0.00731564      -0.01414896      -0.01286894      -0.00892709      -0.00135155       0.00221980
Ga       3.20342566       1.77484131      10.75497560       0.10000000       0.02516666       0.00944264       0.01193047      -0.00171611       0.00052864      -0.00098220
Ga       4.71910342       5.50195951       1.74067013       0.10000000       0.01327098      -0.02405066      -0.00769972       0.00203847       0.00075128       0.00275693
Ga      -0.74696874       3.92501625      13.60514502       0.10000000      -0.01244469       0.01174251       0.02887511       0.00400871       0.00305288       0.00226527
O        0.45290540       1.90196137       5.56294612       0.00000000       0.00408853      -0.00527377       0.00315759       0.00050060      -0.00024194       0.00004530
O        3.62846512      -1.27437813      13.84304383       0.00000000       0.00226771       0.00259344      -0.00071050       0.00042464       0.00013611       0.00037494
O        4.16359663       6.48987372       7.82368409       0.00000000      -0.00436976      -0.00301029       0.00075251       0.00056314      -0.00004706      -0.00040009
O       -0.81060092       4.40555929      10.44929581       0.00000000       0.00022144       0.00233223       0.00603728      -0.00045067      -0.00038625      -0.00049642
O        5.05383934      -0.36996888       3.01600639       0.00000000      -0.00002435      -0.00319099      -0.00443285      -0.00065594      -0.00001310      -0.00005260
O        3.82005829       3.04067260      12.01943346       0.00000000      -0.00278473       0.00491822       0.00274750       0.00092034      -0.00018530       0.00021955
O        4.34033491       7.05478601       0.38020462       0.00000000       0.00086446       0.00050892       0.00136688       0.00035295       0.00012586      -0.00009999
O        1.60071409       8.24941305       6.86246709       0.00000000      -0.00027509      -0.00554062       0.00134569       0.00029898      -0.00002522       0.00028463
O       -1.10912616       5.57210040      -0.58972061       0.00000000       0.00116696       0.00329753       0.00494816       0.00031956      -0.00008206      -0.00019644
O        3.84901547       1.86839404       8.99080032       0.00000000       0.00709999       0.00038258       0.00388100      -0.00050005      -0.00031072      -0.00043262
O        1.78698906       8.54235153      -1.00612896       0.00000000      -0.00141970       0.00404907      -0.00244089       0.00061724      -0.00022458      -0.00074510
O       -0.25113149      10.87246352       3.78276751       0.00000000      -0.00056842      -0.00623186      -0.00630468      -0.00118759       0.00058697       0.00106655
O        0.84940707       2.93236759      -0.00277185       0.00000000      -0.00328271       0.00427811      -0.00196285       0.00028832       0.00004795       0.00020861
O        4.90011649       3.77185111       2.80852694       0.00000000       0.00250780      -0.00057235       0.00509664       0.00072949      -0.00052509      -0.00155723
O        7.18155742       9.36571054      -5.54562974       0.00000000       0.00174970       0.00430351      -0.00235970       0.00003517      -0.00005898      -0.00000379
O        3.31952332       9.53714935       1.61518258       0.00000000      -0.00084394      -0.00391038      -0.00325210      -0.00093818       0.00046951       0.00023971
O       -2.29428699       1.62615680       6.06954460       0.00000000       0.00244428      -0.00208027      -0.00518304       0.00016198      -0.00020549      -0.00133022
O        0.01784639       4.13728302       7.72381351       0.00000000      -0.00426657      -0.00277052       0.00429912       0.00019580       0.00099391      -0.00044002
O        0.65360224       6.74118152      -3.92813174       0.00000000      -0.00351889       0.00170755       0.00026087      -0.00005745       0.00019213      -0.00102887
O       -3.15523364      12.05195590      10.14283494       0.00000000       0.00710793       0.00219169       0.00068836      -0.00000490       0.00054592       0.00064099
O        2.04091605       5.55023635      -1.38016215       0.00000000       0.00483847       0.00734945      -0.00185977      -0.00033365      -0.00036374       0.00114611
O        3.30618956       7.60173227      10.22329757       0.00000000       0.00020873       0.00242102      -0.00179047       0.00044692      -0.00081105       0.00030890
O        1.34842716       6.82791936       1.16423146       0.00000000       0.00059821      -0.00562739      -0.00238443       0.00088353       0.00145602       0.00017565
O        0.20738685      11.98689049      10.16535872       0.00000000       0.00337022       0.00378023      -0.00232926      -0.00000843      -0.00085678       0.00072366
O       -0.16886748       1.55476910       2.45753737       0.00000000       0.00347324       0.00178686       0.00339679       0.00004850      -0.00035706      -0.00064547
O        2.99578730       1.37713707      14.94901622       0.00000000      -0.00304809       0.00131416      -0.00028887      -0.00015488       0.00124243      -0.00087368
O        3.36245929       6.64239995       2.82396262       0.00000000      -0.00345266      -0.00253513      -0.00172350       0.00125779       0.00028458       0.00006409
O        4.15637926       9.55584916       8.50764146       0.00000000      -0.00033749       0.00181498      -0.00098150      -0.00111187       0.00028220       0.00009000
O        1.82870504       3.57041796       3.42459570       0.00000000       0.00393349       0.00344849       0.01109430      -0.00027822       0.00044605       0.00013621
O        2.66707234       4.55803093       9.33838828       0.00000000      -0.00096914       0.00025346       0.00441905       0.00004891      -0.00017492      -0.00002295
O        6.55263617       9.00079806       0.36218824       0.00000000      -0.00103264      -0.00968350      -0.00459334      -0.00100633       0.00029262       0.00077026
O        8.29550823       8.67450903       2.65022168       0.00000000      -0.00335677      -0.00277403      -0.00019287      -0.00045551      -0.00008500       0.00041322
O        0.44232742       6.08034811       3.83819725       0.00000000      -0.00338795       0.00107317      -0.00033087      -0.00004421       0.00047666       0.00051177
O       -0.59641164       1.18003504       8.40247030       0.00000000      -0.00048871      -0.00181623       0.00008849      -0.00063136       0.00027970       0.00025898
O        4.92103455      11.56595700       6.12344606       0.00000000       0.00347758       0.00044122      -0.00132618      -0.00069256       0.00042858      -0.00001660
O        5.58181673       8.37273794       3.30178694       0.00000000      -0.00595505      -0.00115244       0.00060937       0.00003637       0.00169858       0.00082508
O        3.01238666       6.44989133       5.43655299       0.00000000      -0.00583650      -0.00771219      -0.00472924       0.00115141      -0.00009605       0.00005580
O        5.75976609       6.51013714       5.13813047       0.00000000      -0.00529782      -0.00370967      -0.00005292       0.00117792       0.00081161      -0.00106057
O        5.54540373       8.35325399      -2.01206973       0.00000000      -0.00185454       0.00396335      -0.00163673       0.00089134      -0.00098136      -0.00120937
O        5.47884013      10.82945336      10.92849661       0.00000000       0.00377512       0.00257381      -0.00527584       0.00015512      -0.00134391      -0.00016996
O        1.88592528      -0.49294998       3.89244064       0.00000000       0.00087181      -0.00718554       0.00005646      -0.00142494      -0.00004493      -0.00029334
O       -2.85966722      -0.44820569       7.99469160       0.00000000       0.00271140      -0.00145391      -0.00274748      -0.00133678      -0.00060816      -0.00023524
O       -0.31550237       4.75986330       1.85874036       0.00000000       0.00146894      -0.00638360       0.00722886       0.00086172       0.00221318      -0.00053960
O        4.66810276       8.69622169       6.00305216       0.00000000      -0.00398401      -0.00288732       0.00022471      -0.00023238       0.00050226      -0.00006294
O        1.42270544       1.88294371      -2.78055256       0.00000000       0.00516627       0.00106061       0.00221578      -0.00028339       0.00119292       0.00003963
O        2.25047941      -0.46016355       8.88265347       0.00000000       0.00106658       0.00424503      -0.00716597      -0.00052232       0.00084242      -0.00017348
O        2.96888508       4.60276991       1.19911935       0.00000000       0.00062475      -0.00666823       0.00370423       0.00019751      -0.00004419       0.00080229
O        3.76405722       3.64250247       6.41798673       0.00000000      -0.00446884      -0.00540070       0.00565046       0.00109188      -0.00061179      -0.00090930
