80
Lattice="5.89492703917868 0.0 -1.462906704316693 -0.6644162166459134 11.261022162503666 -2.6773324226029014 0.0 0.0 12.60854850223868" Properties=species:S:1:pos:R:3:initial_magmoms:R:1:momenta:R:3:forces:R:3 energy=-473.5098876953125 free_energy=-473.5098876953125 stress="0.00757081713527441 -0.015437145717442036 0.0008355416939593852 -0.015437145717442036 -0.04375966638326645 0.00437152711674571 0.0008355416939593852 0.00437152711674571 -0.03752918541431427" pbc="T T T"
Ga       1.82061243       1.40803844       0.89767326       0.10000000       0.00145344       0.01423596       0.00751576      -0.00454715      -0.00162896       0.00069650
Ga       4.49028139       1.97672402       7.55366671       0.10000000       0.00545058       0.00740409       0.01608726      -0.00438130       0.00811677      -0.00504250
Ga      -0.44303761       5.85995272      -0.40611931       0.10000000      -0.00618751      -0.00022380       0.02119371      -0.00036545       0.00089898      -0.00405088
Ga       1.48303512       6.85253571       5.42278083       0.10000000      -0.01202716      -0.00083655      -0.02688240      -0.01955384      -0.00093009      -0.00294740
Ga       5.52009081       0.19633193       1.77067476       0.10000000      -0.01441427       0.03131720      -0.02226392       0.00200108      -0.00303626      -0.00580738
Ga       6.05565609       3.63449811       4.60977021       0.10000000       0.00614160       0.01736160      -0.00802805      -0.00304494       0.00638353       0.00783649
Ga       3.65290491       8.16779902      -0.26545221       0.10000000       0.02006858       0.00055401      -0.00058895      -0.00313780      -0.00198991      -0.00978504
Ga       3.45652181       8.50398777       3.01469380       0.10000000      -0.00520342       0.00672341       0.01358154      -0.00087167       0.00520627      -0.00910283
Ga       0.72747262       3.34040474       2.81310939       0.10000000      -0.00518278      -0.00646367      -0.02467977       0.00225897      -0.00534150      -0.00337510
Ga       0.15134003       5.24016272       8.59993513       0.10000000      -0.00047784       0.01268184       0.00311860       0.00627993      -0.01398733      -0.01160632
Ga       0.27159829       9.33255669       2.34137924       0.10000000      -0.00693532       0.02285893      -0.02584814       0.00905852       0.00817613      -0.00006349
Ga       2.79007543      10.41027410       9.37863628       0.10000000      -0.01947633       0.02496374      -0.00074019       0.00780168       0.00255299      -0.00577488
Ga       3.86084854       3.12460933       2.41636322       0.10000000      -0.01118072      -0.01519483       0.02084085      -0.00055430       0.00156699      -0.00315046
Ga       3.36594602       4.08598848       9.30436634       0.10000000       0.01630597       0.00063665       0.02791902      -0.01040847      -0.00448220      -0.00390287
Ga       2.17786517      11.03950357       0.17352684       0.10000000      -0.00942577      -0.00870639      -0.01100195      -0.00590040      -0.00084080      -0.00038028
Ga       2.95239189      10.04263851       5.67976814       0.10000000       0.02109432       0.01145736      -0.00938297       0.00348049       0.00838859       0.00189756
Ga       0.87405867       2.82153598      -1.30269161       0.10000000      -0.00387636      -0.01643370      -0.01421565      -0.00082470      -0.00268377       0.00388594
Ga       3.06955388       3.80101778       5.55785906       0.10000000      -0.01464193      -0.00881410       0.01239413       0.00441810      -0.00061607       0.00726445
Ga       0.20666862       9.10987051      -1.08866288       0.10000000      -0.00335381      -0.04309939       0.00239921       0.00156563       0.00921676       0.00207663
Ga      -0.13763987      10.20050293       5.93824470       0.10000000       0.01561460      -0.00594074       0.00088011      -0.00584894       0.00138590       0.00482973
Ga       2.79903132       4.62949986       0.04886579       0.10000000      -0.00107216      -0.00860715       0.02754652      -0.00421629      -0.01005306      -0.00013152
Ga       4.57733425       6.77451041       4.99326315       0.10000000      -0.02482709      -0.00219321      -0.01268592       0.01452975      -0.00295073       0.01054928
Ga       2.03309607       6.94482776      -2.42257885       0.10000000       0.01150516      -0.00020901       0.00441430      -0.00599805       0.00245874       0.01196870
Ga       0.85000068      13.31208094       5.59800887       0.10000000       0.01238292       0.00732941      -0.01695265       0.00404406       0.00263682      -0.00467597
Ga      -0.63657209       0.43512052       6.58445895       0.10000000       0.01769481       0.01085628      -0.00818322      -0.00374509       0.00770216       0.01037863
Ga       4.38569989       2.35191846      11.41384849       0.10000000       0.01120948       0.01507608       0.00569823      -0.00971975      -0.00567421       0.00173458
Ga       1.73104680       6.34712167       2.12588146       0.10000000      -0.00181521       0.00740114       0.01046981       0.00099140       0.00876355      -0.00027336
Ga       3.66153476       6.73268837       7.73928530       0.10000000       0.00589675      -0.00217635      -0.00164303      -0.00547438       0.00238380      -0.00092152
Ga       2.30836686       0.53231540       6.02222259       0.10000000       0.03338865      -0.00466356       0.00921651       0.01488042      -0.00251630      -0.00081044
Ga       5.82619869      -0.39737891      10.56201793       0.10000000      -0.01566555      -0.01097715       0.02267507      -0.00251937       0.00724462       0.00188029
Ga       4.93666350       6.24892281       1.62064653       0.10000000      -0.00205391      -0.00805036      -0.01319956      -0.00829385       0.00844912      -0.00784259
Ga       6.56283653       8.63494003       6.48147560       0.10000000      -0.00623381      -0.01292471       0.00898725      -0.00512799       0.00110654      -0.01089559
O        0.82448975       1.73994061       6.37716548       0.00000000       0.00693743       0.00479775      -0.00308388      -0.00776932       0.00889786       0.00443271
O        1.18199148       0.94944109      11.75257878       0.00000000      -0.00976959      -0.00746623      -0.00179037      -0.00467589      -0.00474180       0.00199107
O        0.82324827       6.30757956       3.82423688       0.00000000      -0.00838251       0.00506283      -0.00219724       0.01331317      -0.00196144       0.01007947
O        0.49267932       7.25506316      11.13901142       0.00000000      -0.00313568      -0.00279834       0.00385658       0.00734189      -0.00391134      -0.00367111
O        3.82439499       1.62186520       5.63575364       0.00000000       0.00948577       0.01023271      -0.00401167      -0.00239783       0.00484633       0.00234338
O        4.18079800       0.53704952      10.95031654       0.00000000       0.00830243       0.00824124      -0.00348550       0.00320950       0.00251742       0.00006270
O        3.87357995       6.61746395       3.24772365       0.00000000      -0.01253184       0.00565776      -0.00116172       0.00079340      -0.00473966       0.00130424
O        3.75991156       7.14014347      10.74525053       0.00000000      -0.00983210       0.00165891       0.00587253      -0.00175139       0.00376545       0.00592531
O        1.07635017       4.64870796      -0.81737641       0.00000000      -0.00707398       0.00136379       0.00600112       0.00862547       0.00042862       0.00777522
O        1.43176734       3.75564681       4.73447409       0.00000000       0.00294597       0.00788860      -0.01565661      -0.00055127       0.00910975       0.00124621
O        1.04535790       9.62323625      -3.03612237       0.00000000       0.00892275      -0.00133061       0.00898147       0.00087345       0.00454547       0.00637591
O        0.37181580      10.38418661       4.05936212       0.00000000      -0.00476543       0.01737355      -0.00477423      -0.00439283      -0.00520193       0.00135161
O        4.06506138       4.45048695      -1.50987857       0.00000000       0.01515482      -0.00556708      -0.00492996      -0.00264442      -0.00638032      -0.00085814
O        4.27597435       3.80244766       4.15462351       0.00000000       0.00980886       0.00510851       0.00370885       0.00461961      -0.00462814       0.00138819
O        4.42861646       9.49042360      -3.57672342       0.00000000      -0.00878616      -0.00244692      -0.00475674       0.00231242      -0.00269642       0.00045650
O        3.81471030      10.20474877       3.67776133       0.00000000      -0.00122688       0.00658514      -0.00372370       0.00770308       0.00211807       0.00004482
O        0.24934161       2.61323882       0.91954470       0.00000000      -0.00263616       0.00681460      -0.00847380       0.01149309       0.00074527       0.00858074
O       -0.08709919       3.42704982       8.09294971       0.00000000      -0.00305836      -0.01597885       0.00445770       0.00142282       0.00501160       0.00248000
O       -0.71806564       9.32623703       0.63350304       0.00000000      -0.01053310      -0.00848947       0.01053034      -0.00370774      -0.00730727      -0.00592117
O        0.07713467       8.11746546       6.04348163       0.00000000      -0.00236815      -0.00524304       0.00554966       0.00111180      -0.00665573      -0.00090322
O        3.00655296       2.71227087       0.04415188       0.00000000       0.00122068      -0.01413539       0.00218094      -0.00264777       0.00324603      -0.00681937
O        2.96007025       3.30257826       7.43923315       0.00000000       0.00292167      -0.00669786       0.00594704       0.00231117       0.00048211       0.00220609
O        2.08908418       9.19393800      -0.37661004       0.00000000      -0.01222862      -0.00114073       0.00703051      -0.00610991      -0.00302607      -0.00147585
O        2.89528489       8.19323874       5.10447911       0.00000000      -0.00400391      -0.00283176      -0.00725242      -0.00700793      -0.00713652       0.00158393
O        2.45145508       1.89959928       2.66592787       0.00000000       0.00161299      -0.00150184       0.00265264      -0.00961281      -0.00301690      -0.00255775
O        2.13920377       2.71681044       9.90013855       0.00000000       0.00943823      -0.00497731      -0.00087243       0.00869312       0.00198022      -0.00290962
O        1.79624816       8.29047064       2.29608676       0.00000000       0.00113338       0.01034329      -0.00659084       0.00353893       0.00021666       0.00088032
O        2.28011632       7.70698045       8.36142801       0.00000000      -0.00158695       0.00097581      -0.00254099       0.00690222      -0.00605351      -0.00627550
O        5.47614351       2.02960984       2.14991449       0.00000000      -0.00238925      -0.00809817       0.00092426       0.00555875      -0.00240278      -0.00103821
O        4.90683700       2.67026718       9.33586965       0.00000000      -0.00213060       0.00192002       0.00703127      -0.01078077       0.00125342      -0.00064194
O        4.62795303       8.33329779       1.46336411       0.00000000      -0.00295265      -0.00098217      -0.00425995      -0.00177699      -0.00275081       0.00052451
O        5.28615169       7.20224677       6.91501876       0.00000000       0.00999693       0.00213690       0.00417006       0.00046319      -0.00500352       0.00127788
O        2.12740699       4.43044365       2.02011264       0.00000000       0.01292231      -0.00497995       0.00455512      -0.00831864      -0.00603952       0.00352456
O        1.89442916       5.35791855       9.19950583       0.00000000       0.00765998       0.00028809      -0.00642755       0.00489902      -0.00131797      -0.00031633
O        1.12087470      11.00549979       1.74418832       0.00000000      -0.00087657      -0.00309682      -0.00988918      -0.00619067      -0.00976216      -0.00337341
O        1.53469524      10.04791851       6.90270361       0.00000000      -0.00296170      -0.00420555       0.01180002       0.00253006      -0.00728990      -0.00218824
O        4.88202329       4.37119556       1.40780239       0.00000000      -0.00694219      -0.00339348       0.00714370       0.00275277       0.00172906       0.00383449
O        4.64406381       5.35875752       8.55399994       0.00000000      -0.00549700      -0.00141062       0.00456101       0.00689191       0.00841932       0.00126711
O        3.99813969      11.07005487       0.81487801       0.00000000      -0.00052586      -0.00936551      -0.01976781       0.00009612       0.00224522      -0.01346588
O        4.79190800       9.98494157       6.22944290       0.00000000      -0.00248888       0.00499213       0.00787308       0.00988594       0.00807554       0.00758301
O        0.94992201      -0.08725457       1.84243241       0.00000000      -0.00050324      -0.00344914      -0.00237331      -0.00197918      -0.00284493      -0.00005332
O        0.12059500       0.84130330       8.71489803       0.00000000      -0.00264726      -0.00200628      -0.00377084      -0.00046638      -0.00453309       0.00074990
O       -0.01344417       6.42645096       1.32774949       0.00000000      -0.00116240      -0.00693502       0.00201865       0.00171435       0.00297489       0.00120495
O        0.29163794       5.56435664       6.60418735       0.00000000       0.00193050       0.00616125      -0.00319124      -0.00893489       0.00474669      -0.00866932
O        3.65123657       0.13319720       1.03051245       0.00000000       0.00293521      -0.00519845      -0.00657112       0.00104691      -0.00144425       0.00583620
O        3.03797189       0.65694716       7.90172783       0.00000000       0.01453350      -0.00458748      -0.00340132      -0.00314675      -0.01085773       0.00343435
O        3.07526155       6.41798629       0.65837833       0.00000000       0.00043765      -0.00389775      -0.00266136       0.00306376       0.00177398       0.00196334
O        3.13900933       5.80070841       6.03344223       0.00000000      -0.00946007      -0.00073410       0.00212776       0.00491787       0.00666803      -0.00502859
