80
Lattice="5.91569642 0.0 -1.46806091 -0.66675713 11.30069771 -2.68676537 0.0 0.0 12.65297174" Properties=species:S:1:pos:R:3:initial_magmoms:R:1:momenta:R:3:forces:R:3:energies:R:1 energy=-477.855224609375 stress="-0.018515273928642273 0.00021531918901018798 -0.0005112565704621375 0.00021531918901018798 -0.04504738375544548 0.0017646520864218473 -0.0005112565704621375 0.0017646520864218473 -0.02012539654970169" free_energy=-477.855224609375 pbc="T T T"
Ga       2.10510647       1.79771131       1.29037556       0.10000000      -1.85884910       0.21072660      -4.16048069       0.01270214       0.00890945      -0.00283336      -3.21877909
Ga       2.07390531       1.92776713       7.48506278       0.10000000       0.22612015      -0.12052330      -2.04740460      -0.00815432       0.01851144       0.01266827      -3.08577204
Ga       1.79833883       7.46937176      -0.20588062       0.10000000       0.11884485       1.06677329       1.13174221      -0.02491780       0.00962899       0.01039680      -3.14871025
Ga       2.72760640       8.27400952       3.74773919       0.10000000       2.55317116       1.82929360       1.53359353       0.00245940       0.01468785      -0.00574733      -3.13455081
Ga       5.05197271       1.80141552       0.56272733       0.10000000      -0.04449132      -4.36926884      -0.59157704      -0.00923829      -0.01450132      -0.00773090      -3.22016096
Ga       5.03460603       1.92668454       6.76683663       0.10000000       2.03237388      -0.93662366       1.14789434       0.00431100      -0.02175838       0.00807519      -3.10787487
Ga       4.67590656       7.47783216      -0.93653171       0.10000000       0.03319603       0.36127679      -1.64037545      -0.02144974      -0.00121249       0.01371729      -3.15023804
Ga       4.76893521       7.07883786       5.68659655       0.10000000       1.04938112      -0.77533584       1.99201536      -0.00735765       0.01741162      -0.01828888      -3.15417290
Ga       1.02886639       3.76145473       3.34662621       0.10000000       1.10726256      -1.18920542      -0.26953913      -0.01123556       0.00197166      -0.01873793      -3.21191740
Ga       1.03958979       3.89982365       9.60459705       0.10000000      -2.17729158       0.56345996       0.04748944      -0.00115924       0.03035716       0.01463987      -3.18332839
Ga       0.68903733       9.56286286       1.86843269       0.10000000       0.08216849      -1.81490413      -1.64270235      -0.00270274       0.01607707      -0.01387827      -3.19879746
Ga       0.71356664       9.45386730       8.18806316       0.10000000       1.36397006       1.91767392      -1.55010798       0.00741607       0.01565499      -0.01769905      -3.16016936
Ga       3.93778267       4.23585802       2.48695217       0.10000000      -0.98279091      -2.20981317       0.86422520       0.00320913      -0.00558873      -0.00887774      -3.14769340
Ga       3.99807181       3.90490628       8.87578312       0.10000000      -3.26699076       1.06978924       0.68307987      -0.00199414      -0.00694744      -0.00515695      -3.18365359
Ga       3.61392841       9.58771774       1.11917252       0.10000000      -0.61201234       0.85608932      -0.53219907       0.00947642      -0.00826577       0.01979042      -3.15036321
Ga       3.62103387       9.46526736       7.46268018       0.10000000      -0.63527386      -0.61506998      -1.31310702       0.00313224      -0.04448297       0.00560762      -3.16152263
Ga       0.26665704       4.41062008       0.13967646       0.10000000       3.51266920      -1.92598998       0.38762641      -0.00878930       0.01365809       0.00574241      -3.09879756
Ga       0.24643595       4.63091865       6.45152170       0.10000000      -0.84776775      -2.51817273       1.77371540       0.00786898       0.00362982       0.00747008      -3.17464137
Ga      -0.08731771      10.17072772      -1.25929950       0.10000000      -0.11847058      -0.30313633      -2.25877172       0.00226070       0.01072622      -0.00352712      -3.16471052
Ga      -1.38585277      10.50294432       6.15831606       0.10000000       0.91223667       1.20135630      -0.81302308       0.00083450      -0.01323795       0.02007641      -3.07664061
Ga       3.22568977       4.53171551      -0.57732135       0.10000000      -2.78624595      -1.50796124       2.07723767      -0.00173060      -0.00109335      -0.01199725      -3.16029692
Ga       3.17015586       4.63852516       5.73556891       0.10000000       1.22356945      -0.55797210       0.58166737       0.02016626       0.01783620      -0.00477856      -3.17676854
Ga       2.86110797      10.18052861      -2.03507915       0.10000000      -1.28995676       3.22770995      -1.56193662      -0.00295221      -0.03255413      -0.00097065      -3.13817596
Ga       1.58013171      10.49264353       5.44879700       0.10000000      -1.10473980       0.03125504       2.61427627      -0.00182539       0.00981124      -0.01779061      -3.08052731
Ga       2.87115441       1.17740926       4.37004550       0.10000000       0.06521291      -0.59617077      -0.95284980       0.01553711      -0.01551179       0.00036530      -3.17268348
Ga       2.86124224       1.24141887      10.71200801       0.10000000       0.98018563       2.50597269      -0.23317436       0.01182711       0.00507940      -0.01032992      -3.13035083
Ga       0.80179649       6.39866171       2.58513156       0.10000000       2.36781375       0.69109571       0.06844867       0.00780793      -0.00318195       0.00035596      -3.12330317
Ga       5.51360721       6.81169506       8.57557737       0.10000000      -2.07779961       0.12927249      -0.77537406      -0.02171792       0.00252491       0.00509042      -3.13819432
Ga       5.82144846       1.15173506       3.63836151       0.10000000      -0.19478762      -1.50638882       0.79646518       0.01060988       0.00929216       0.00092073      -3.17603517
Ga       5.82363964       1.21280433       9.99904125       0.10000000       1.25666140       1.22513079       0.47315902       0.01966226      -0.01826070      -0.00606636      -3.12952399
Ga       5.69362829       8.29203793       3.02737793       0.10000000      -0.90762399       0.78219561       0.32002960      -0.00614896      -0.01284860       0.01656395      -3.12819552
Ga       8.40936854       6.81612252       7.60318591       0.10000000       1.74566661       1.24852349      -1.12124555       0.00385638       0.01097053       0.01415665      -3.18336797
O        1.63190447       1.37588418       5.72138686       0.00000000      -0.89837400       0.38757555       0.32512377       0.01157251      -0.00898249       0.01524122      -7.96765947
O        1.63155299       1.45825981      12.04516122       0.00000000      -1.01424373       0.82656974       0.35137414       0.00109147       0.00575412       0.00454569      -7.88258457
O        1.28101103       7.12223564       4.24907523       0.00000000       1.82007860      -0.40647270      -0.34227853       0.00406624      -0.00949362      -0.01107508      -7.65553522
O        1.33267721       7.11287322      10.57480436       0.00000000      -0.72979522      -0.84622741      -0.24651796      -0.01318534       0.01190460       0.01586284      -7.86405993
O        4.59169963       1.39379899       4.98743021       0.00000000      -0.00102566       0.47981820      -0.01316583       0.00914986      -0.00404291       0.00057235      -7.97147799
O        4.57288474       1.45956075      11.31622508       0.00000000      -0.71316267       0.13780531       0.67902548       0.01315208      -0.00288633       0.00303781      -7.87953377
O        4.33396914       7.21600589       3.88350666       0.00000000       0.72070264      -0.50182333      -0.64078211      -0.01302407      -0.00300545      -0.01107512      -7.77637672
O        4.22140964       7.11769328       9.85071667       0.00000000       1.25867868       0.13107108       0.17050543      -0.01348475      -0.01647082       0.00895552      -7.87390852
O        1.51412641       4.20201936      -1.18273849       0.00000000      -0.99399966       0.70257664      -0.14390788      -0.00371624      -0.00200153       0.00767320      -7.91203070
O        1.48519070       4.19138672       5.17628077       0.00000000      -1.26960705       1.24157246      -0.17062518       0.00963375      -0.00627029      -0.01823050      -7.96982670
O        1.12966982       9.95762698      -2.62944525       0.00000000       0.56509174      -0.10476283       0.58059502      -0.00422042      -0.00709771      -0.00724022      -7.91296482
O        1.17136465       9.66248895       3.77720584       0.00000000       0.96797346       0.39122251       0.32002917      -0.02456623       0.00485337      -0.00637284      -7.82506275
O        4.45723239       4.20048305      -1.90916223       0.00000000       0.98231840      -0.18207672       0.54967970       0.00235450       0.00764268      -0.00753143      -7.91431999
O        4.41670735       4.32280698       4.36554170       0.00000000       0.62728381      -0.00773375       1.08302162       0.01302537      -0.00334743      -0.01073342      -7.97176552
O        4.11223010       9.95717656      -3.37051455       0.00000000      -0.30464387      -0.22110888      -1.07826944       0.00096149       0.01035859       0.00304444      -7.91036510
O        4.11628049       9.60711526       2.97264796       0.00000000       0.77788831       0.15273886       0.40970829      -0.00513879       0.01062405       0.02399096      -7.90819359
O        0.55711720       3.10256397       1.40731594       0.00000000      -0.22660462       0.74937284      -0.95123407       0.00673860       0.00948626       0.00343537      -7.97798491
O        0.55207714       3.20065773       7.72754453       0.00000000      -1.49618773       0.33589278      -0.67598807       0.00195541       0.00633722       0.01548176      -8.14441967
O        0.22856357       8.79825188      -0.02127869       0.00000000       1.75548752      -0.32011772       0.21780434       0.00399891       0.02834623       0.00537568      -8.06625557
O        0.17821079       9.26507787       6.24743840       0.00000000       0.56022881       0.02654915       0.46169640      -0.00149152      -0.00132087      -0.00112292      -7.85927200
O        3.53031102       3.24720000       0.74732601       0.00000000      -0.82535176       0.24999168      -0.37809108       0.01614305      -0.01709989      -0.00843161      -7.99603319
O        3.52903287       3.20324105       6.99264075       0.00000000      -0.56391501       0.10478139       0.12873490      -0.00269127      -0.00397238      -0.01358706      -8.14171124
O        3.20338913       8.87723143      -0.70697924       0.00000000       0.11967362       0.03127585       0.72934423      -0.01011465      -0.01397145       0.00932622      -8.15496731
O        3.19260146       9.26371181       5.49536359       0.00000000      -0.91451464      -0.13412558      -1.23741365      -0.00561976      -0.01394749       0.00367340      -7.85022211
O        2.54518831       2.48376556       3.09980062       0.00000000       0.29903622       1.29503231       0.41358968       0.01131296      -0.00006989       0.00496334      -7.93295622
O        2.53859976       2.47832328       9.36237676       0.00000000      -0.56348809      -1.56989681       1.16146014       0.00552952       0.01100343       0.01068187      -8.01966000
O        2.15857848       8.14112145       1.72472292       0.00000000      -0.36341355      -0.68691166       0.27459044       0.02379450       0.01614815       0.00192478      -7.74499607
O        2.23170743       8.31959363       8.06643222       0.00000000      -0.42096292       0.42693887      -0.00459904      -0.02061535      -0.00749397      -0.01727521      -7.70233345
O        5.51978542       2.46102618       2.36645342       0.00000000      -0.29993685       0.51544953       0.28023275      -0.00341578      -0.00839069      -0.00568336      -7.90239048
O        5.50198854       2.47366641       8.65491458       0.00000000      -0.45791395      -0.30734130      -0.77111150       0.00327590      -0.02377298      -0.00849751      -8.00421715
O        5.31368811       8.07838773       0.95296560       0.00000000       0.88412081      -0.73671757      -0.42689601      -0.00082797       0.01933989       0.00190397      -7.75624895
O        5.16867185       8.19845547       7.26302442       0.00000000      -0.26869608       0.75923424       1.22362820       0.01343109      -0.00427884      -0.01051256      -8.20928001
O        2.21883928       5.06931305       2.49310569       0.00000000       0.71943000      -0.02314355       0.23309986       0.01014066      -0.00936636       0.01419649      -7.51433420
O        2.43934104       4.99576452       8.91444500       0.00000000      -1.27048603      -0.12963503       0.98642414      -0.00301738       0.01094756       0.00565914      -7.78229713
O        2.05829382      10.72841614       1.12830482       0.00000000      -0.25069921       0.41655399       0.41610422       0.00631702       0.01289290      -0.00605020      -7.86251545
O        2.05061518      10.80199515       7.37830935       0.00000000       0.13960694       1.21513914       0.55668164       0.00849888       0.00445414      -0.01105000      -8.06149101
O        5.47744186       5.05174740       1.70036675       0.00000000       0.01531769       0.17421384      -0.32514135      -0.00031167       0.00687060      -0.00312908      -7.55339956
O        5.41147295       5.01147499       8.23052452       0.00000000       0.14140926      -0.06670360       1.17700681      -0.00993632      -0.00870767       0.00462238      -7.78644466
O        5.02679612      10.69595853       0.40462113       0.00000000      -0.49864870      -0.73425882       1.14968304       0.00106766       0.00911996       0.00810844      -7.87324619
O        5.01910835      10.76361869       6.68164148       0.00000000       0.37111688       1.36066602       0.45368654      -0.00165243      -0.01178962       0.00643599      -8.02705956
O        0.70137663       0.60609889       1.97295113       0.00000000       0.80094667      -2.27560930      -0.28087743       0.00251656       0.02484161       0.00752892      -7.73719311
O        0.68761611       0.55573322       8.25501851       0.00000000      -0.92574569      -0.20122598      -0.80036746       0.00548410      -0.00443406      -0.01936362      -7.57707787
O        0.39297995       6.24399416       0.63521926       0.00000000       0.10283729      -0.44288331      -0.19346639      -0.01167945       0.01469430       0.00725304      -8.20165253
O        0.45136459       6.20251210       7.30869911       0.00000000       0.70185167       0.86307814      -0.31542286      -0.01419857      -0.02615545      -0.02541947      -7.06215382
O        3.65399534       0.62756908       1.21905902       0.00000000      -0.58367596      -0.52703575      -1.10085074      -0.00703323      -0.01222530      -0.01846901      -7.81907749
O        3.66281635       0.55436875       7.51114887       0.00000000       0.32486968      -0.08120025       0.19184016      -0.00319241       0.00236879       0.00933066      -7.58141661
O        3.33621318       6.31725791      -0.18229042       0.00000000       0.23781169      -0.12327520      -0.01525006      -0.00987173      -0.00594333       0.02512743      -7.80702066
O        3.42995535       6.20830041       6.57742245       0.00000000      -0.76407862      -0.31589418       0.55878546      -0.01396987      -0.00874105      -0.00832903      -7.08045864
