80
Lattice="5.91569642 0.0 -1.46806091 -0.66675713 11.30069771 -2.68676537 0.0 0.0 12.65297174" Properties=species:S:1:pos:R:3:initial_magmoms:R:1:momenta:R:3:forces:R:3:energies:R:1 energy=-480.56494140625 stress="-0.033855535089969635 0.003341476432979107 0.014086751267313957 0.003341476432979107 -0.03821777552366257 0.013675340451300144 0.014086751267313957 0.013675340451300144 0.019392646849155426" free_energy=-480.56494140625 pbc="T T T"
Ga       1.93282641       2.17165082       1.20798316       0.10000000       1.47191264       1.11133396       0.50071505       0.00177877      -0.02559273      -0.01088635      -3.13856244
Ga       3.43094980       2.09885453       7.14361923       0.10000000       0.75809633      -1.15242022       0.09010370      -0.01219325       0.01468872       0.01577345      -3.13123631
Ga       3.08477601       7.75131352      -0.51963240       0.10000000       1.79845291      -1.21290340       1.63957279      -0.00934085       0.00961998      -0.02704131      -3.13399243
Ga       1.59508993       7.82734752       6.19065680       0.10000000      -2.03166163       1.93065670      -1.60387999       0.01202937      -0.03101523       0.00767491      -3.13927794
Ga       4.89042879       2.16219971       0.47617271       0.10000000       0.70905533      -1.12738649      -0.14116876       0.00149752      -0.00523895      -0.02537647      -3.13854289
Ga       6.38989030       2.09914707       6.40978281       0.10000000      -0.11451506      -2.97709969      -0.49154458      -0.03320407       0.01194388       0.02102300      -3.13218403
Ga       6.04137206       7.75412852      -1.25387607       0.10000000      -1.08858855      -1.63652308      -0.47426484      -0.00568896      -0.00411201      -0.02824066      -3.13362432
Ga       4.55260176       7.81388754       5.45644756       0.10000000      -0.44830050      -1.72470792       0.00579199       0.01483283       0.00767833       0.01180740      -3.13979697
Ga       0.81834840       5.40935932       2.99954669       0.10000000       0.87989716      -0.61023680      -1.54637873       0.00219924       0.00950880      -0.00097382      -3.13856339
Ga       2.29647673       5.46576783       8.97431575       0.10000000      -0.40882640      -2.81196460       0.31543575      -0.00485891       0.00720125       0.00624729      -3.13350129
Ga       1.95942051      11.12136337       1.30231027       0.10000000       0.61135743      -0.89346635      -1.02319011      -0.00308914      -0.01876199      -0.01335390      -3.13474870
Ga       0.48202720      11.04831685       7.98399653       0.10000000       0.18221281      -1.26346189       1.51163168       0.00414748       0.01388115       0.00760743      -3.13925433
Ga       3.77571147       5.40108349       2.26616373       0.10000000       0.92871152       0.02987421       1.06069689      -0.00848750       0.02226973       0.00062903      -3.13878918
Ga       5.25333337       5.47592060       8.24148022       0.10000000      -1.36852877      -1.33470191       1.37993084      -0.00008713      -0.01415515      -0.00562880      -3.13396049
Ga       4.91820050      11.12156537       0.56938180       0.10000000      -0.18469675       3.36614842       0.56266336      -0.00412825      -0.01550162      -0.01601202      -3.13375139
Ga       3.43889253      11.05135063       7.24891291       0.10000000      -1.84760583      -0.90333623      -0.68094858       0.01539195       0.01136968       0.00562682      -3.13953185
Ga       1.57498813       4.81003049      -0.26852308       0.10000000       1.43583852       0.74929122      -1.34749167       0.00793032       0.01034502       0.00751842      -3.19983602
Ga       0.09945955       4.86777580       6.47371738       0.10000000       2.16209316       0.75045896      -0.58903542       0.00897174      -0.00994962      -0.00490898      -3.20649171
Ga      -0.22821786      10.51601242      -1.20154582       0.10000000       1.64403438       0.57731234       2.31493257      -0.00353971      -0.02626644       0.00794643      -3.20692754
Ga       1.24445322      10.45824429       4.71281330       0.10000000       1.75843923       1.30009750       0.47056819       0.00173158       0.01294005       0.00281616      -3.19893670
Ga       4.53556041       4.80619601      -0.99684308       0.10000000      -2.00714053      -0.49170952       1.30913293       0.00177957       0.02138603      -0.01092684      -3.20037866
Ga       3.05601801       4.86696531       5.73921730       0.10000000       1.30677403      -2.04559875      -0.17035803       0.00985097       0.00296873       0.00081793      -3.20595217
Ga       2.72877315      10.51572003      -1.93239224       0.10000000      -0.63448787       0.17902446       0.07947458      -0.00239575      -0.02793191      -0.00317813      -3.20616388
Ga       4.20339685      10.45766055       3.98404048       0.10000000      -1.96986668       1.57741632       1.45471635       0.00412648       0.00258054      -0.00704848      -3.20021152
Ga       4.13191948       2.76463442       3.74088034       0.10000000      -0.87472480      -0.22166388       0.74679136       0.00034133       0.00144385      -0.01381038      -3.19873595
Ga       2.65479733       2.69998213      10.39042091       0.10000000       1.04751021       0.85587941       0.60267967      -0.01688081       0.01789272      -0.00871925      -3.20613813
Ga       2.31557195       8.35818903       2.71477637       0.10000000       0.06072199       1.40774061       0.68572001       0.00882132      -0.00052316       0.01314540      -3.20687413
Ga       3.80360865       8.41549062       8.72173729       0.10000000       0.52387573       1.84543953      -0.19378264      -0.01057208      -0.00634113      -0.02084000      -3.19930673
Ga       7.08804621       2.76715088       3.00185209       0.10000000       1.54324373      -1.75734965      -0.97043714       0.00056496      -0.00874199      -0.00464183      -3.19788337
Ga       5.61159091       2.70237032       9.65232632       0.10000000       1.70787308      -2.26927260      -0.17314171      -0.00806629       0.00813652       0.00040353      -3.20775604
Ga       5.27143338       8.35724589       1.98243810       0.10000000      -1.77141867      -1.38120974      -0.21442606       0.01333716       0.00425696       0.00549292      -3.20626879
Ga       6.76285084       8.41303009       7.98770254       0.10000000      -0.24726769       1.42660869       1.82485082      -0.01735020       0.00383059      -0.01015387      -3.19867015
O        2.99724909       2.88190061       5.47118695       0.00000000      -0.22027178      -0.32215564       0.18853900       0.00306308      -0.00271955      -0.00175643      -8.01066399
O        4.47012490       2.83577824      11.39357546       0.00000000       0.23240717      -0.19796728      -0.50190571      -0.00252254       0.01157299       0.00287691      -7.98300886
O        1.17382851       8.48887300       4.45275310       0.00000000       0.48477188       0.10750520       0.54734416       0.00258613       0.01523921       0.00455436      -7.98079729
O        2.66672875       8.52965754      10.45418901       0.00000000      -0.89575979       0.04785710      -0.99739383      -0.01255892       0.00486282       0.00567275      -8.00841999
O        5.95366250       2.88068198       4.73780957       0.00000000       1.04604171       0.08680532      -0.44109441       0.01015151       0.01067847      -0.01114476      -8.00913620
O        7.42327934       2.83935842      10.65832318       0.00000000      -1.44908972       1.12906631      -0.09666634       0.01294970      -0.00292057      -0.00072205      -7.98336029
O        4.13219019       8.48851366       3.72212931       0.00000000       0.56080394      -0.45181236       0.48016419       0.00487874       0.00696412      -0.00743183      -7.98229456
O        5.62132905       8.52867539       9.71926286       0.00000000       0.69447743      -0.18289366      -0.27667640       0.00912823       0.00078601       0.01218998      -8.00719738
O        2.71648487       4.68653032      -2.00397633       0.00000000      -0.07819026       0.39145373      -1.04380672       0.00182897       0.00179988       0.00550956      -8.00843143
O        1.24042551       4.73719777       4.73519359       0.00000000       0.27014606       0.56674870      -0.34833395      -0.00137026      -0.01410836      -0.01670700      -7.98405123
O        0.91077914      10.38420713      -2.93275567       0.00000000      -0.34093448       0.00321445      -0.23645700      -0.01035168      -0.01549479      -0.01486740      -7.98203516
O        2.38162352      10.34156825       2.97681752       0.00000000      -0.11764107       0.63729246      -0.33406877      -0.00255062       0.00501549       0.01264867      -8.00666523
O        5.67279291       4.68924122      -2.74027170       0.00000000      -0.69846123       0.56118731      -0.45249469      -0.00972287      -0.00032625       0.02379152      -8.00814342
O        4.20029742       4.73710027       4.00325764       0.00000000      -0.48481321       0.76818677      -1.67153836      -0.00300460      -0.00886989      -0.02060342      -7.98116970
O        3.86981418      10.38460834      -3.66988905       0.00000000       1.11245258       0.13653642       0.01207209       0.00033700      -0.00066975       0.00129959      -7.97957850
O        5.33809005      10.34157885       2.24446690       0.00000000      -2.65394520      -0.44019368      -1.35072965       0.00108747       0.00436482      -0.00238392      -8.00758648
O        3.36469373       4.58938692       0.61924398       0.00000000      -0.36925825       0.71461580       0.96967418      -0.00161886       0.00759897       0.00818288      -7.76189995
O        1.88573903       4.65919068       7.34432420       0.00000000      -1.12886512       1.43678159       0.66121698       0.00614627      -0.00297660      -0.01677722      -7.77430820
O        1.55669003      10.30804062      -0.32805239       0.00000000       0.33903589      -0.77768351      -0.03954695      -0.00604969       0.01337178       0.00402230      -7.76877880
O        0.07850674      10.23792613       6.33479323       0.00000000      -0.03756862       1.02434383      -0.60492297      -0.00332843       0.01186131      -0.00075802      -7.76407719
O        6.32554378       4.59318347      -0.11429239       0.00000000       0.06958745      -1.11165751      -0.07977159      -0.00453257      -0.00078453       0.00801206      -7.76253605
O        4.84401215       4.67061877       6.60986579       0.00000000      -0.27757476       0.08622326       0.59558512      -0.00397998      -0.02162614      -0.01449394      -7.77335453
O        4.51529998      10.31336422      -1.06407259       0.00000000       0.44401208      -0.13141589      -0.33470558       0.00068560       0.00655247       0.00930810      -7.76955795
O        3.03450930      10.23881269       5.60092559       0.00000000      -0.20865614       1.29405449       0.60555736      -0.00827643       0.00807102       0.00487438      -7.76574087
O        2.34144016       2.99352703       2.84982854       0.00000000      -0.88247720       0.91376991       0.22755355       0.00127324      -0.01980555      -0.00115258      -7.76057529
O        3.82688624       2.89276927       8.78389693       0.00000000       0.28434186      -0.28042181       0.71291886      -0.01045741       0.02461289      -0.01027226      -7.77354336
O        0.53060696       8.55549447       1.84667258       0.00000000      -1.47649680      -1.00382126      -0.06281477      -0.01132809       0.00975151       0.01084852      -7.77211428
O        2.00933729       8.64839955       7.83279201       0.00000000      -0.35051911       1.28375120      -0.47168899       0.01270548      -0.03436379      -0.01729995      -7.75863028
O        5.29453446       2.98965726       2.11618646       0.00000000       0.00150160      -0.43128495      -1.18005115       0.03222388      -0.01204938      -0.00471264      -7.76120901
O        6.78485858       2.89569635       8.04862908       0.00000000       1.03517113      -0.67688533      -0.26324648       0.00582887       0.01412117      -0.00609571      -7.77145672
O        3.48789707       8.55827103       1.11130149       0.00000000       0.72355950       0.51786786      -0.96360396       0.00714958       0.00174400       0.00776327      -7.77323103
O        4.97001211       8.63593354       7.09831196       0.00000000      -0.20512134       0.00081625      -1.21382833      -0.00736411      -0.01111336      -0.01302230      -7.75680542
O        2.30854349       6.44911613       2.67196537       0.00000000      -0.81297855       0.35966406      -0.22349747      -0.00662996      -0.00245164       0.01340185      -7.92529011
O        3.78790782       6.51298407       8.67216858       0.00000000       1.17306072      -0.21199512      -0.23809709       0.00363487      -0.02259140       0.00907677      -7.94348812
O        3.45268097      12.16256379       0.99276654       0.00000000      -0.12632944      -0.18523372       0.73096662       0.00814679      -0.00827053       0.02724075      -7.94410753
O        1.97150282      12.09146882       7.66323045       0.00000000      -0.13559140       0.96118519      -0.41473513       0.00440899       0.03286502      -0.00978381      -7.92543411
O        5.26102941       6.44790653       1.93460794       0.00000000      -0.54818972       0.54890263       0.32962716       0.00807016       0.00946818       0.02143326      -7.92641211
O        6.75316054       6.51053928       7.94299762       0.00000000      -1.14013448       0.65087346       0.61693357      -0.00626559      -0.00604856      -0.00079016      -7.94419336
O        6.41328422      12.16380364       0.26781622       0.00000000      -1.31136664      -0.34913170      -0.53263419       0.00170894      -0.00592470       0.00996990      -7.94321489
O        4.92903470      12.09229232       6.92123678       0.00000000       0.05910723      -1.30236995       0.41100672       0.00926556       0.01558591       0.00819972      -7.92492485
O        0.44708296       1.12419774       1.53609387       0.00000000       0.26803741       0.48232953       0.00127776      -0.00242491       0.00451727      -0.00913884      -7.92638922
O        1.93071552       1.05983225       7.42865180       0.00000000      -0.62999637      -0.54299287       0.41629817      -0.02032712       0.00484613       0.03131900      -7.94370413
O        1.58527049       6.71349128      -0.23067564       0.00000000       1.18168963       0.11182076       1.15782818       0.00300307       0.00134000       0.00897714      -7.94260740
O        0.11076988       6.77825015       6.51778063       0.00000000      -0.02360414       0.17449690      -0.44915479       0.00072157      -0.02993454      -0.01230176      -7.92589569
O        3.39784386       1.12367037       0.79405690       0.00000000       1.38225534       0.28258379      -0.12003543       0.01198624       0.00261754       0.00307985      -7.92486668
O        4.88736257       1.05965087       6.69101898       0.00000000      -1.20817135       1.06774515       0.27653079      -0.01155084       0.01647618       0.03470062      -7.94288301
O        4.54398273       6.71160069      -0.96530034       0.00000000       1.21178058       1.66083900      -0.24096458      -0.00034576      -0.00389192       0.01065447      -7.94050884
O        3.06098711       6.77747792       5.78374867       0.00000000      -0.29470365      -0.70086766      -0.69198882       0.01414201      -0.01955411      -0.01017994      -7.92480087
