80
Lattice="5.91569642 0.0 -1.46806091 -0.66675713 11.30069771 -2.68676537 0.0 0.0 12.65297174" Properties=species:S:1:pos:R:3:initial_magmoms:R:1:momenta:R:3:forces:R:3:energies:R:1 energy=-475.95635986328125 stress="-0.010333866812288761 0.00470843305811286 0.0015318947844207287 0.00470843305811286 -0.003853161120787263 -0.007884470745921135 0.0015318947844207287 -0.007884470745921135 -0.02983800880610943" free_energy=-475.95635986328125 pbc="T T T"
Ga       2.57653368       0.94927865       4.59098804       0.10000000       2.42319012      -1.13902471      -0.51443360      -0.03916295      -0.00938112       0.01640309      -3.14342523
Ga       2.46113400       1.25471408      10.75150943       0.10000000       1.09036813      -0.47260581       0.50489771       0.00313559       0.01452886       0.01171605      -3.20247984
Ga       1.38158386       7.07484984       0.30486702       0.10000000       1.92875161       0.41273514      -3.89766309       0.02713579      -0.01188304      -0.01317023      -3.12020016
Ga       1.65018244       7.04876412       6.56226850       0.10000000       1.96348757       1.10112231      -0.43411443      -0.01268406       0.00965982       0.00022373      -3.19219351
Ga       5.52705042       0.98740531       3.86961901       0.10000000      -1.41777205       0.60834259      -0.66362462      -0.00866217      -0.01772966       0.02029121      -3.14775801
Ga       6.34810712       4.40024850       7.26296284       0.10000000      -3.01231881      -3.68279309       0.05903543       0.01680598       0.00691397      -0.01160467      -3.09405065
Ga       4.24330329       7.06297107      -0.54083838       0.10000000       2.38338775      -0.29566609      -0.70552194       0.02370184       0.00561565      -0.00070792      -3.14619255
Ga       4.50613697       7.06526756       5.82085992       0.10000000       0.22538759      -0.30903791       1.11860221      -0.00141012      -0.01043567      -0.00319918      -3.20468020
Ga       0.75659540       3.71497843       3.30941140       0.10000000      -2.74009495       1.09701985      -1.97971569       0.00162617      -0.01480897       0.03005078      -3.12410474
Ga      -2.31387585       3.56438157      10.56533339       0.10000000       0.13561417      -1.75341265       3.06939179       0.01191603       0.00619536      -0.01283702      -3.21552396
Ga       0.49849690       9.25617373       2.19722822       0.10000000      -1.35430289      -0.83879466       1.27703268      -0.00023964      -0.00151905      -0.00429466      -3.14811158
Ga       0.22144798       9.55822721       8.51102405       0.10000000       0.08205727      -0.23491809      -0.60369134      -0.00381361       0.01766893      -0.02445809      -3.17289114
Ga       3.59584889       3.60796207       2.74376934       0.10000000      -0.88228230      -0.90098576       1.71141155      -0.00763309      -0.00823753       0.00458942      -3.13243508
Ga       2.79806939       4.26580448      12.12241152       0.10000000       0.68513547       0.54636165       0.68753592       0.00872985       0.00047074      -0.00261117      -3.21506763
Ga       3.44433167       9.25140581       1.46219776       0.10000000      -3.27255827       1.09770844       1.25960613      -0.00453142      -0.01351694      -0.00570474      -3.14144373
Ga       3.22298624       9.64775816       7.80178497       0.10000000      -2.67742800       1.11246337       1.60118003       0.00787750       0.01449381       0.00947196      -3.15259361
Ga      -0.34476217       4.94327579      -0.66221711       0.10000000       0.90434283      -2.21342627       0.26925898       0.00953946       0.02404530      -0.03232765      -3.18919659
Ga      -0.20596648       4.59036724       5.76637586       0.10000000      -3.92846676      -2.09411478       0.14103090       0.00297940       0.01666610      -0.00595602      -2.98550391
Ga      -1.46545774      10.16316754      -0.36673877       0.10000000       3.13860564       4.52763790       1.60820256       0.03708478      -0.02176020       0.00372798      -3.12072730
Ga      -0.26825257       9.82938569       5.46051389       0.10000000      -0.04839420       0.11677759      -0.71543418      -0.00688137      -0.01231381      -0.02183611      -3.11980033
Ga       1.52207849       1.72886546       1.36312248       0.10000000      -1.71243975       0.06776584      -0.39532503      -0.00399974       0.00970092       0.00935633      -3.07642460
Ga       2.99181792       3.92326043       6.10973832       0.10000000       2.54093263       0.51287274       1.33624989      -0.01150504      -0.00454541      -0.00264408      -3.22350979
Ga       1.50447729      10.15181404      -1.09221650       0.10000000       0.98005710      -2.69520556       1.51865102       0.03215273       0.01139684       0.00395481      -3.10766006
Ga       2.68454138       9.78962807       4.70391235       0.10000000       1.71465859       0.35820165      -0.46928394       0.00377966       0.00267347      -0.01045180      -3.14491820
Ga       4.83311476       1.49549997       7.11792978       0.10000000       2.47850889       0.51213196       2.05852920      -0.00472887       0.00213607       0.00931430      -3.18041182
Ga       4.53509396       1.76367173      13.24738607       0.10000000      -1.42052417       0.87533390      -0.61795645       0.00533021      -0.00999823       0.03415774      -3.09026504
Ga       2.24801201       6.72341299       3.27754890       0.10000000       0.74669661       1.51374090      -0.16389511      -0.02532232      -0.01114519       0.01745329      -3.16932988
Ga       1.27324200       7.22229530       9.92006061       0.10000000      -1.99580001       0.94668158       0.01654912      -0.01731198       0.01004338       0.01743921      -3.14887023
Ga       7.70059365       1.48190672       6.38109821       0.10000000       0.38186841      -5.04233900      -2.17098386      -0.00240430       0.00136817       0.00976500      -3.19383788
Ga       5.49884982       1.30650041      10.05300703       0.10000000      -0.52220290       1.30401180      -1.48199868      -0.00754242       0.02729338       0.01586929      -3.19842029
Ga       5.20197469       6.90500364       2.40863101       0.10000000       1.94124708      -0.62313613      -0.18911594      -0.03689637      -0.01465040       0.00375978      -3.14993453
Ga       4.16388092       7.17214115       9.03059491       0.10000000       3.91017345       1.92686619       0.18388148      -0.02925883       0.00852625      -0.00624617      -3.11764121
O        3.00261984       1.74393500       6.22842820       0.00000000      -0.80586220      -0.01900915       0.15025771      -0.00671748      -0.00306201       0.01512587      -7.96204472
O        1.32635775       1.12407994      12.28370913       0.00000000      -0.98238488       0.62956978      -0.45927045      -0.00397070      -0.00278080       0.00262889      -7.77380228
O        1.02529408       6.86088462       4.74197560       0.00000000      -0.07607742      -0.02948082      -0.36818917      -0.02555616       0.01076300      -0.00162506      -7.80356979
O       -3.42199348       7.31438706      12.87912805       0.00000000      -0.74773529      -0.39475430      -0.36595468       0.02938004      -0.00714445      -0.01587830      -7.67263460
O        5.97395447       1.62211355       5.53827591       0.00000000       0.99030340       0.68587744      -0.45507111      -0.01646020      -0.00439884       0.00279766      -7.76541853
O        4.25935192       1.05850898      11.53392477       0.00000000       0.52554905       0.41422070       0.32932798       0.00555286       0.01700297       0.00056455      -7.69949818
O        4.04526146       6.91381923       3.94966354       0.00000000      -1.17269250      -0.31676743      -0.25059172      -0.01440907      -0.00286292       0.00556891      -7.79495859
O       -0.40694094       7.12679101      12.11614764       0.00000000      -1.37373733       0.78712592       0.40714151       0.02246524       0.00152057      -0.02238382      -7.73228407
O        1.35097979       5.17147481       0.17475728       0.00000000      -0.58994811       0.66549469       0.54585486       0.01364908      -0.01227196      -0.00456591      -7.73469019
O        1.28102207       3.69030004       5.20939767       0.00000000       0.20945113       0.44269186       0.61944508      -0.01827029       0.00451611       0.00863335      -7.71899080
O        0.93831696       9.09844630      -2.45931272       0.00000000       0.63071011      -0.04018729      -0.71328143      -0.00478539       0.01399615      -0.01118255      -7.75314760
O        1.20457453      10.81453604       5.02594897       0.00000000      -0.91754767       0.07231317       0.10938363       0.00458683      -0.00278449      -0.01549747      -7.88711405
O        4.41321276       5.17332998      -0.50681263       0.00000000       0.74231809      -0.03193326      -0.52579290       0.02480028       0.00748089      -0.00915319      -7.67312098
O        4.12976833       3.70733572       4.57701753       0.00000000      -0.90878077       0.68973835       0.52496386      -0.01317310       0.00157209       0.01377262      -7.77045774
O        3.93455908       9.06892488      -3.20372838       0.00000000      -0.35695342       1.54734501      -0.55657147      -0.02115556       0.00243923      -0.00570232      -7.76518536
O        4.13379314      10.81873580       4.30709204       0.00000000       1.14352415       0.53509750       0.63478081      -0.00060122      -0.00564510       0.00853388      -7.86741447
O        0.12120305       2.90281536       1.68863939       0.00000000       0.68881575       0.24738377       0.58551937      -0.00769086      -0.01725644       0.02293602      -7.69586182
O        1.95159271       3.56594343       7.94383683       0.00000000      -0.00745608      -0.04084997      -0.58970996       0.01420915      -0.00131252      -0.00740455      -8.01755524
O       -4.26500416       9.14506829       1.99188899       0.00000000       0.30169267      -0.12279450       1.73101671       0.01119548      -0.00807729      -0.01050916      -8.04927349
O        0.06121981       8.53675599       6.78859306       0.00000000       0.10611101      -0.46913944       0.01552226       0.00060790       0.00901809      -0.00276959      -7.96784973
O        3.07860654       2.95734707       0.89955197       0.00000000      -0.42016117       0.29084186       0.20114781      -0.00251212       0.00609026       0.00182348      -8.20693874
O        4.67404525       3.52084394       7.26633409       0.00000000       0.08859922       0.50932013       0.20294901       0.00505823       0.00750253      -0.00775304      -7.98069096
O       -1.28208699       9.11652726       1.21855910       0.00000000      -0.42978528      -1.80746490      -0.19419610       0.01220592      -0.01160210      -0.00632808      -8.02871895
O        3.00747942       8.57394200       6.09538659       0.00000000      -0.65797775       0.37531067      -0.33801298      -0.00764467       0.01445007       0.00509846      -8.05698586
O        2.23457672       2.12024422       3.17032914       0.00000000      -0.25697317      -1.39179065       0.60577749       0.00548470      -0.00922430       0.01337546      -7.95936966
O        2.52088428       3.19335055      10.66936698       0.00000000      -0.33410043      -0.11678860       0.32581848       0.01453099      -0.00078341      -0.01618391      -7.73090839
O        2.28968562       8.95604007       3.06999845       0.00000000      -1.76526832       0.13383175      -0.66825477      -0.00114717      -0.01373407       0.01756984      -8.00128746
O        2.26754397       7.51637657       8.34506862       0.00000000       0.80909040      -0.93660076      -0.75200492      -0.00803602      -0.01009987       0.00455334      -7.78047800
O        5.09310524       2.16549875       2.49581461       0.00000000      -0.01401684      -0.24524758      -0.53151651      -0.02094836      -0.00828880       0.01764208      -7.79925585
O        5.30538918       3.19322128       9.94568058       0.00000000      -0.06119873      -0.78308765       0.64255125       0.01843137       0.00093156      -0.02482967      -7.51242638
O        5.24547101       8.99458434       2.32870598       0.00000000      -0.53112540       0.74032308       0.02034863      -0.00932259      -0.00901937      -0.00359730      -8.12532997
O        5.22910422       7.60094705       7.53926163       0.00000000       0.73271774       1.59304935       0.11367934      -0.02915937       0.02690963       0.00184233      -7.72112226
O        2.17953301       4.88831264       2.80430264       0.00000000       0.52925760       0.78387021      -0.96725252      -0.01280612      -0.00564551       0.01919416      -7.74824762
O       -1.97390286       5.40583468      10.92765205       0.00000000      -0.17057173       0.25669353      -0.40251033      -0.00208747      -0.00159794      -0.00133601      -7.52395916
O        0.40425527      11.20133466       2.18252953       0.00000000       0.41151516      -0.35525645      -0.01641825      -0.00997096      -0.01279311       0.02494130      -7.93460560
O        1.66430489      10.59305911       7.84290279       0.00000000       0.10163452       0.18715224       0.95114104       0.00725298       0.01423633       0.00299881      -7.79056787
O        5.18546849       4.89871509       2.41302217       0.00000000       0.16186437       0.30058751      -0.73567047      -0.00815564      -0.00459531      -0.00666586      -8.00821018
O        0.73560791       5.46311749      10.16318078       0.00000000      -0.43235936       0.02200270      -0.42160786      -0.01521595       0.01102401      -0.01141000      -7.64329386
O        3.37579301      11.18188335       1.47383387       0.00000000       0.02541665      -0.46969715      -0.02923369      -0.01850311      -0.03034391       0.00074814      -7.93006182
O        4.64789240      10.63868520       7.09491551       0.00000000       0.50985276      -1.37447507       0.33563301       0.00543664       0.01542948      -0.01443540      -7.78031778
O        0.70551189      -0.04970716       2.01567133       0.00000000       0.57950190       0.82661463      -1.61681192       0.04347743      -0.00412822       0.02148916      -7.70454073
O        0.65909585       1.38616787       9.58363630       0.00000000      -0.61234387      -0.53383915       0.94906263       0.02948333       0.01739697      -0.01039102      -7.35254240
O        0.60339674       7.21902298       2.11853307       0.00000000       0.70027436       0.30793402      -0.85119059      -0.00320350      -0.00867268      -0.01243368      -7.74521160
O        0.16387160       5.72162072       7.19162013       0.00000000      -0.88498481      -0.23242669       0.65948672      -0.00358414       0.01874360       0.00505820      -8.18539238
O        3.66075009      -0.03760774       1.29222927       0.00000000       0.73204353       0.85936583      -1.52287922       0.03589699      -0.01780661      -0.00613594      -7.64409685
O        3.55544480       1.51418821       8.82192685       0.00000000      -1.02448271       0.16454512      -0.45710426       0.03102363      -0.00192922      -0.01009777      -7.68570375
O        3.54510177       7.23142918       1.30350778       0.00000000       0.17400968       0.15837911      -0.56324494      -0.00729708      -0.01516208      -0.01385149      -7.77710056
O        3.12280986       5.82746120       6.35692462       0.00000000      -0.02961915      -0.85740552       0.27323971      -0.01014991       0.00452812      -0.02426814      -7.72454548
