80
Lattice="5.91569642 0.0 -1.46806091 -0.66675713 11.30069771 -2.68676537 0.0 0.0 12.65297174" Properties=species:S:1:pos:R:3:initial_magmoms:R:1:momenta:R:3:forces:R:3:energies:R:1 energy=-482.4083251953125 stress="-0.03556952625513077 0.00018010420899372548 0.0008467825828120112 0.00018010420899372548 -0.03132331371307373 0.0005368678830564022 0.0008467825828120112 0.0005368678830564022 -0.032406285405159" free_energy=-482.4083251953125 pbc="T T T"
Ga       3.08379841       1.95540497       1.15619008       0.10000000       1.52373435      -0.01786930      -1.15751874       0.00728071      -0.00070267      -0.00669679      -3.21081161
Ga       1.43564646       1.68245114       7.09140106       0.10000000      -3.24141195      -0.94735697       0.32005674      -0.00887468      -0.01082881      -0.00184334      -3.16040707
Ga       2.76555464       7.60758767      -0.18920450       0.10000000       0.87576940      -1.45615642       0.72878230      -0.01799094      -0.00393500      -0.00132556      -3.21006393
Ga       1.08280635       7.32807373       5.74594738       0.10000000       0.56989248       1.54669912       1.83984044      -0.00034717      -0.00374526       0.01021587      -3.16091919
Ga       6.03977554       1.95475031       0.42118439       0.10000000      -2.02388132       0.64726945      -0.35464851       0.00554625       0.00182632      -0.00239650      -3.21048450
Ga       4.39096491       1.68401280       6.34921111       0.10000000       1.87324591      -2.21890679       0.81161542      -0.01113838      -0.01575113       0.02112557      -3.15987968
Ga       5.72378428       7.60641736      -0.92321360       0.10000000       0.33862817      -0.80302260       0.89262695      -0.02239164       0.01014870      -0.00693166      -3.21105409
Ga       4.04342175       7.33079403       5.01540248       0.10000000      -0.30426996       0.64931464       0.60307551      -0.00797859      -0.00709647      -0.00640271      -3.16026020
Ga       0.73384208       3.97917762       4.39921433       0.10000000       1.09990578       0.12443989      -2.75766195       0.01033551      -0.00022770      -0.00558556      -3.16063643
Ga       2.03465902       3.70430178       9.59455854       0.10000000      -1.25539674      -0.05922518      -0.21062129       0.01905553      -0.01530711       0.00876383      -3.21139979
Ga      -2.51839447       9.62989039       3.77766572       0.10000000      -2.02806625      -2.05376188       1.03385260      -0.03221025       0.00702465       0.01042178      -3.15886259
Ga       1.71469135       9.34832934       8.24119506       0.10000000       0.69077851      -1.84947152      -1.02193222       0.00580457       0.00011679       0.01530302      -3.21048903
Ga       3.69125502       3.97899473       3.66166180       0.10000000      -2.69271492      -0.97005960      -1.83607559       0.01830941       0.00490145       0.00434315      -3.16025782
Ga       4.99465027       3.70161810       8.86245784       0.10000000      -0.12189752      -2.75289569      -1.40609225      -0.00423958      -0.00168276      -0.01166867      -3.21028018
Ga       0.43698949       9.62969219       3.03491657       0.10000000      -0.27450428       1.85515924      -1.20058603      -0.01996176      -0.00424005       0.02579849      -3.15982628
Ga       4.67254774       9.35318903       7.51090864       0.10000000      -0.19531165       2.21207896       0.18470179       0.00527132      -0.00632672      -0.00252069      -3.21116948
Ga       1.24356148       4.49333503       0.09954832       0.10000000       1.19413081      -0.63314473       1.25790076       0.01018279       0.01465281      -0.01508160      -3.15975404
Ga      -3.00413913       4.79569233       8.27792130       0.10000000      -1.54459969       1.70148557       0.79091622       0.02175156       0.00809968       0.00161827      -3.21069956
Ga       0.93317161      10.14415591      -1.25499240       0.10000000       0.17849611      -1.25056193      -0.99857427      -0.01912489      -0.00169254       0.01594859      -3.16085362
Ga      -0.36038451      10.44738332       6.19183819       0.10000000      -0.65831119      -0.81183005       2.76014946       0.00359427      -0.01117571       0.00488608      -3.21013474
Ga       4.20110707       4.49266630      -0.63438023       0.10000000       0.83896130      -0.25319770       1.20595039       0.01224961       0.01067611      -0.00322560      -3.16066432
Ga      -0.04671789       4.79671284       7.54735524       0.10000000       1.01412627       0.28823713      -0.51128407       0.02412174      -0.02348212      -0.01311193      -3.21131182
Ga       3.88872195      10.14235593      -1.98598545       0.10000000      -0.14879918       2.13828238       1.85052174       0.00909429       0.01418357      -0.00045610      -3.16071558
Ga       2.59714153      10.44336725       5.45638291       0.10000000      -0.92067942      -0.32700665       2.82437525       0.00036225      -0.00608701       0.02070132      -3.21105599
Ga       5.17758573       0.86452502       3.20572028       0.10000000      -0.65895557      -1.96831227      -1.34748471      -0.01225753       0.01407195      -0.00859658      -3.20992994
Ga       3.87173085       1.16192541      10.65005982       0.10000000       0.37436739      -0.23683659      -1.98751170       0.00165306       0.00040790       0.00318073      -3.16057062
Ga       1.86920556       6.51354477       2.59963240       0.10000000      -0.87371664       0.26103733       2.23449841       0.00295039       0.01331758       0.01037443      -3.21063542
Ga       3.54829433       6.81494351       9.30656150       0.10000000      -0.28098189      -1.01450776      -0.75389355       0.00340423       0.00164711       0.00573668      -3.16204190
Ga       8.13368643       0.87000562       2.46979846       0.10000000       0.37262096      -0.93288750      -1.33427179      -0.01349411      -0.01249822       0.00087996      -3.21167660
Ga       6.83163888       1.16376119       9.91835836       0.10000000      -1.37435388       0.24520249      -1.49149294      -0.00093094       0.00164919       0.00510093      -3.16172075
Ga       4.82536818       6.51259565       1.86503572       0.10000000      -0.29679105       1.59032712      -0.26302057       0.01709433       0.00747861      -0.00554472      -3.21085310
Ga       6.50586030       6.81919904       8.57556947       0.10000000      -0.19266336      -1.37695507       2.28476286      -0.00387665      -0.02794842      -0.00072257      -3.16092563
O        2.66495014       1.46837455       5.73353266       0.00000000      -0.09638851       0.50565213       0.59810840      -0.00048408      -0.01631695       0.00839482      -7.92812443
O        2.64074225       1.37103429      12.00730332       0.00000000       0.57088120       0.88649799       0.37493071      -0.01377242      -0.00432028       0.00129516      -7.92774916
O       -0.64098836       7.11018340       5.12704671       0.00000000      -0.42562685      -0.29070143      -0.56860986      -0.00145232      -0.00369824       0.01400602      -7.92943239
O        2.31499761       7.02878105      10.66142411       0.00000000       0.29741141      -0.61105938      -0.70586238      -0.00186323      -0.01517630       0.01320416      -7.92733240
O        5.62889501       1.45840272       5.00183075       0.00000000      -0.26594960       0.35704956      -0.02281859      -0.02068597       0.00592728      -0.00201011      -7.92713070
O        5.59531290       1.37219409      11.27165733       0.00000000      -0.89238937       1.03865931      -1.71367621       0.01216540      -0.00542274       0.01150627      -7.92807722
O        2.32008974       7.10205822       4.39813429       0.00000000       0.36499441       0.02648679       0.32547796       0.00334483       0.02158530      -0.01655617      -7.92711258
O        5.27203084       7.02047421       9.93226894       0.00000000       0.34955301      -0.98775998      -1.36125261      -0.00684278       0.00974134      -0.02633348      -7.92750120
O        2.47798383       4.28266468      -1.25503985       0.00000000       0.13516240      -0.46920807       0.64188669       0.00807644       0.01054578      -0.00793780      -7.92861509
O       -0.50054368       4.19288086       5.75218583       0.00000000       0.43665078       1.95749228       0.56179813       0.02379536       0.02319454      -0.00217594      -7.92634583
O        2.16614548       9.92755474      -2.60948630       0.00000000       0.29606251      -0.68100130       0.37524033      -0.01480336       0.02127041       0.00689839      -7.92685556
O        2.15725244       9.84500866       3.66065189       0.00000000       0.99377368      -0.36154441      -0.76244220       0.01498995       0.00885853      -0.00376958      -7.93105793
O        5.43563907       4.28348125      -1.98840137       0.00000000       0.88293591       0.65682248      -0.67385513       0.01145203      -0.00244524      -0.01674901      -7.92741537
O        2.45872455       4.20386070       5.01477049       0.00000000       0.77388813       0.24206492      -0.66316462       0.01758980      -0.01399918      -0.00556944      -7.92714787
O        5.12287807       9.93087816      -3.33981092       0.00000000      -0.31013896      -1.20518070      -0.22997087       0.00518256       0.00585571      -0.00970978      -7.92974234
O        5.12146348       9.85186868       2.92363161       0.00000000       0.37801407       0.89043396       0.39356967      -0.03338496      -0.00551245       0.01458715      -7.92756462
O        1.55214018       3.15449557       1.32305318       0.00000000       0.23436801      -0.26422728       0.28087209       0.01457170       0.02493984       0.01590619      -7.81408072
O        1.55873748       3.46403760       7.64896820       0.00000000      -0.33434392      -0.75867426       0.39466576      -0.02821112      -0.00051200       0.00297908      -8.03434181
O        1.23967733       8.81065035      -0.02200777       0.00000000       0.82109823       0.29883898      -0.06473028      -0.01974313       0.00607264       0.00936256      -7.81383944
O        1.23118361       9.11067601       6.29794470       0.00000000      -0.42710724       0.09252761       0.01887759       0.00227631       0.00792742       0.00510639      -8.03519917
O        4.51229837       3.16002815       0.59660964       0.00000000       1.03194161       0.91407752      -0.17649235       0.00294491      -0.00179896      -0.01239446      -7.81379366
O        4.51380091       3.46476708       6.91419367       0.00000000      -2.05810912      -0.23844844      -1.86366698       0.00754284      -0.01235974       0.00712274      -8.03612804
O        4.19660272       8.81017100      -0.75321921       0.00000000       0.63001916       0.48934109       0.01569608      -0.00794193       0.01277140       0.01185175      -7.81529427
O        4.19173140       9.11402676       5.56340882       0.00000000       0.22274781       1.04321577      -0.74947761      -0.01493291      -0.00283766       0.00299971      -8.03512573
O        3.56949765       2.19703748       3.10227472       0.00000000       0.51125025       0.26174977      -1.34945473      -0.00366754       0.00653046      -0.01313816      -8.03623867
O        3.56487463       2.50069968       9.42502221       0.00000000      -0.25339649       0.30271731       1.34080831      -0.00689288      -0.00960919      -0.00520000      -7.81235075
O        3.24459916       7.84625277       1.75953784       0.00000000      -0.27153734       0.00058232       0.67272256      -0.01708470       0.01085806      -0.02505559      -8.03662968
O        3.24442550       8.14518550       8.07071336       0.00000000       0.65644730      -0.22057014       0.14568379      -0.01187537       0.00470376       0.01201101      -7.81164169
O        6.52647171       2.19858744       2.36668674       0.00000000      -0.99475414       0.26310634      -0.43227864       0.00751254      -0.00999218      -0.00563620      -8.03614521
O        6.52204037       2.49578839       8.68570832       0.00000000      -0.70972265      -0.18059766      -0.13767081      -0.00269775       0.01050365       0.01458916      -7.81283092
O        6.20289473       7.84569734       1.02101420       0.00000000      -0.45775093       0.90719949       0.52095605      -0.01449696       0.01186591       0.00473213      -8.03487682
O        6.19837042       8.14716389       7.33817703       0.00000000       0.90610534       0.60329455       0.04050275       0.01036990      -0.00417596       0.01833014      -7.81279850
O        3.39018599       5.30867301       2.42551851       0.00000000       0.41938155       1.20180984       0.24607575       0.03642009       0.01224071      -0.00888695      -7.81658888
O        3.39579241       5.03343187       8.75305061       0.00000000       0.79991654       0.14444975       0.41091831       0.03567570      -0.00628829       0.01899257      -8.03576469
O        3.08096562      10.96836839       1.08553803       0.00000000      -0.22419654       0.77208735      -0.31971221       0.00942929      -0.02373055      -0.01084462      -7.81553173
O        3.07494459      10.67980759       7.40588586       0.00000000       1.36402665       0.15248032      -0.54203209       0.00880200       0.00107223      -0.01149076      -8.03922462
O        6.35087771       5.31161112       1.69705173       0.00000000      -0.33562810      -0.63734681       1.08132261       0.01403274       0.01026684      -0.01754697      -7.81517935
O        6.35736054       5.03327730       8.02600792       0.00000000       1.11995121      -0.13747570      -0.94494453       0.00010519      -0.00079507      -0.02379456      -8.03876114
O        6.03977185      10.96383137       0.33918579       0.00000000      -0.31175976       0.91821150       0.54648425      -0.00576142       0.00228029       0.01540842      -7.81616831
O        6.03302158      10.68241512       6.67143363       0.00000000       0.90389979      -0.65357801       0.12565821       0.00132879      -0.00765485       0.00280514      -8.03726196
O        1.72830829       0.62517288       1.99307311       0.00000000      -0.08691033      -1.28072077       0.79589311       0.01059924       0.00497407      -0.00458543      -8.03686047
O        1.74126472       0.34906805       8.32353633       0.00000000       0.14265325       0.26350037      -0.88488005      -0.01529512      -0.01268601      -0.01643803      -7.81720114
O        1.39256534       6.27617624       0.65286213       0.00000000       0.54688225       0.90002684      -0.17645749       0.01609635      -0.00100309      -0.00750685      -8.03833485
O       -1.56873792       6.00021993       7.71857592       0.00000000       0.21217062      -0.64061902       0.03387935      -0.03793312      -0.01834577       0.00107710      -7.81416750
O        4.68573288       0.62433557       1.26161743       0.00000000       0.18144960       0.63541003       0.99742538      -0.00055519       0.00349158      -0.01132117      -8.03898239
O        4.69219367       0.34764423       7.58051317       0.00000000      -0.36542385       1.03371221       0.81497852       0.01439742      -0.01353893       0.00046876      -7.81619215
O        4.35239019       6.27587701      -0.08084875       0.00000000      -0.42097198       0.18792361      -0.49581944      -0.01902138      -0.00093806      -0.00495680      -8.03846645
O        1.38318221       5.99769895       6.98354651       0.00000000       1.20111983       0.34572304       0.09388289       0.00745390      -0.00179368      -0.01631504      -7.81478596
