80
Lattice="5.91569642 0.0 -1.46806091 -0.66675713 11.30069771 -2.68676537 0.0 0.0 12.65297174" Properties=species:S:1:pos:R:3:initial_magmoms:R:1:momenta:R:3:forces:R:3:energies:R:1 energy=-482.3983154296875 stress="-0.03559395298361778 -0.0004266923642717302 0.001157231512479484 -0.0004266923642717302 -0.032453201711177826 -0.0014378117630258203 0.001157231512479484 -0.0014378117630258203 -0.03162183240056038" free_energy=-482.3983154296875 pbc="T T T"
Ga       1.64554105       1.63282533       1.03049433       0.10000000       0.26935534      -0.52167195      -0.75137107       0.00198311      -0.00313319      -0.01086571      -3.21129370
Ga       1.65352161       1.60877597       7.37110392       0.10000000      -0.37170242       0.38890916      -0.39444051      -0.01914428      -0.00025295      -0.02996635      -3.21167898
Ga       1.30093251       7.29248224      -0.33071632       0.10000000      -1.18745812      -1.74560759      -1.15036857       0.01006489      -0.01444375       0.02051773      -3.21105909
Ga       1.30037024       7.25285447       5.99890841       0.10000000       1.01213727       1.57480282      -0.09134217       0.01298807       0.02404545      -0.00092113      -3.21040177
Ga       4.60398979       1.63363507       0.29504520       0.10000000       0.58621929       0.17712343      -2.21619101      -0.01424644      -0.00728301       0.00822840      -3.21111703
Ga       4.60856927       1.60673660       6.63490534       0.10000000       1.48866519       1.68095017      -1.01985288       0.00274803       0.01615206      -0.01070959      -3.21177411
Ga       4.25854739       7.29354685      -1.06123314       0.10000000       0.67610370       1.49592188       2.82182510       0.00810641      -0.02374837      -0.00196133      -3.21026754
Ga       4.25822899       7.25309747       5.26323067       0.10000000      -1.65799986       0.56826435      -1.08381282       0.00432796       0.02596252       0.01497995      -3.21095061
Ga       0.57810855       3.75081357       3.05198565       0.10000000       0.57675358       1.87623199       3.52746651      -0.00813351      -0.01516222       0.00000936      -3.21155620
Ga       0.57363872       3.72744595       9.38970715       0.10000000       0.00433111      -0.26006711      -1.00448766      -0.00463664       0.01567027      -0.00130390      -3.20989752
Ga       0.24338583       9.41136063       1.69122389       0.10000000       0.89532064      -0.97293490       2.60061115      -0.00457469      -0.02025640       0.01602479      -3.21116376
Ga       0.23239357       9.37326589       8.01968637       0.10000000       0.73089418      -1.08490803      -1.62906645       0.01209049       0.02177602       0.01550587      -3.21080422
Ga       3.53629191       3.75219845       2.31862083       0.10000000      -1.51378343      -1.72604985      -2.08504986      -0.01197065      -0.02296951      -0.00662167      -3.21130514
Ga       3.53252366       3.73253698       8.65778880       0.10000000       0.07797170       1.49400135      -0.50220077       0.00304680      -0.01597472      -0.01895336      -3.21034884
Ga       3.19978501       9.41034913       0.95796437       0.10000000       2.49753392      -0.65681236       0.70164314       0.00104144      -0.01308648       0.00777559      -3.21151662
Ga       3.19082265       9.37470417       7.28790808       0.10000000      -2.14530561      -1.52888931       0.48073171       0.00257410       0.00951832      -0.00102272      -3.21183705
Ga      -0.20583550       4.35939818      -0.06615963       0.10000000       1.35368571      -0.30837249       0.18222144       0.00999843      -0.01585416      -0.01791296      -3.15938425
Ga      -0.19336502       4.32138614       6.25638554       0.10000000      -3.17747945       1.92752982       0.57459368      -0.01701486       0.03944825      -0.00348338      -3.15781522
Ga      -0.53660495      10.00615995      -1.43900194       0.10000000       0.94466733       0.35996720       0.05036028      -0.00786476       0.00180719      -0.00008304      -3.16134596
Ga      -0.53390023       9.98330078       4.90056692       0.10000000       2.43019285       0.73240371       1.62830213      -0.00940164       0.02369771      -0.01054032      -3.16034317
Ga       2.75081748       4.35839779      -0.80087871       0.10000000       0.76790059      -0.26160467       0.79422699       0.01344050      -0.00864209      -0.01416373      -3.15965843
Ga       2.76415855       4.32385892       5.52276798       0.10000000      -0.71759399       0.71516249       0.23417119      -0.00960342       0.02036773      -0.00322194      -3.15860915
Ga       2.41940034      10.00835935      -2.17471031       0.10000000      -0.21724825       0.98430521       0.23957623       0.01539241      -0.01182070       0.01788346      -3.16215324
Ga       2.42445740       9.98175027       4.16647677       0.10000000       2.41098466      -0.46025694       2.02328245      -0.01955366       0.03729845      -0.00330573      -3.16100240
Ga       2.43484586       1.03320587       4.15936358       0.10000000       1.42505146      -1.79623395      -1.76879209      -0.02450765      -0.02295653      -0.00771219      -3.16081786
Ga       2.41459624       1.00411594      10.49112965       0.10000000      -1.07877548       0.40860680      -0.71753665       0.00114499      -0.00287166      -0.01650812      -3.16199708
Ga       2.07084370       6.68290597       2.79300548       0.10000000      -1.34730869      -1.03177092      -1.03980546       0.01816818      -0.01610565       0.00627912      -3.15869451
Ga       5.03182250       6.66110160       8.39870833       0.10000000      -1.79345306      -1.15329397      -1.57081189       0.03375658       0.00678924      -0.01084373      -3.16050601
Ga       5.39455805       1.03136966       3.42634925       0.10000000      -3.48654198      -1.09357335       2.00273838      -0.03718085      -0.00953696      -0.01819775      -3.16122985
Ga       5.37325704       1.00129213       9.75768245       0.10000000       0.41717381       0.67516853       0.58447882       0.00096895       0.03258269      -0.02499564      -3.16210294
Ga       5.02962921       6.68255416       2.05879134       0.10000000      -0.51235063      -0.19152850       1.18424436       0.02146494      -0.00458685       0.02117322      -3.15801239
Ga       7.99058354       6.66096027       7.66276110       0.10000000      -0.51445774      -0.72142102      -2.50313662       0.01892854      -0.00122441       0.00558508      -3.15975690
O        1.19809281       1.29492615       5.50437193       0.00000000       0.12437520      -0.30378139       0.01134520      -0.00766165       0.00901651      -0.01931131      -7.92459297
O        1.17636144       1.29947280      11.82451238       0.00000000      -0.71245799      -0.86716652      -2.04191475       0.01050119      -0.00680934      -0.01112786      -7.92483139
O        0.83588985       6.94720251       4.13663141       0.00000000       0.43738614       0.95589489      -0.00751038      -0.00591154       0.00677908      -0.00145873      -7.92845440
O        0.83714822       6.95784794      10.46450725       0.00000000       0.89314391      -0.14228996       0.28831662      -0.00694142      -0.01752170       0.02261251      -7.93097878
O        4.15561799       1.28443071       4.77056990       0.00000000       0.36021805      -0.58507476      -0.47490249      -0.01598253       0.02013716      -0.00900835      -7.92701578
O        4.13420896       1.28723999      11.09203257       0.00000000       0.84863076      -1.07819282      -0.65225419       0.01930960       0.01464195      -0.00555322      -7.92489386
O        3.79290504       6.93808575       3.40248965       0.00000000      -0.60197350       1.08252500      -1.27389047       0.02226719       0.01058307       0.01175937      -7.92745686
O        3.79540929       6.94846485       9.73518558       0.00000000       0.97934097       0.89941265       0.37974631      -0.01090520      -0.01079832       0.00968096      -7.92997169
O        1.03132604       4.08155347      -1.40716357       0.00000000      -0.38837769       0.42905319       1.03855636       0.00210202      -0.01363380       0.00118041      -7.92944288
O        1.04287736       4.06226810       4.91256218       0.00000000      -0.56249999      -0.06772580       0.54948139      -0.01408084      -0.00450965       0.00589794      -7.92900419
O        0.70005371       9.72910167      -2.77914869       0.00000000       0.06603063      -0.54737777       1.21226347      -0.00808173      -0.02197618       0.03044766      -7.92559910
O        0.70193427       9.72773677       3.55556036       0.00000000      -0.03871574       0.87062149      -0.11167022       0.01303629      -0.02211790       0.01371786      -7.92609215
O        3.99118532       4.07002957      -2.13661895       0.00000000      -0.18641771       0.62050786       0.84882005      -0.00863760       0.00552457      -0.02131927      -7.93102598
O        4.00076662       4.04869303       4.18179339       0.00000000      -0.49285377      -0.09381356      -0.01964147      -0.00992223       0.02432962      -0.00068462      -7.92964506
O        3.65908040       9.71798013      -3.50843666       0.00000000       0.23089407       0.59662761      -1.43395410      -0.00210733      -0.00286277       0.01319551      -7.92538595
O        3.66052591       9.71143879       2.82513195       0.00000000      -0.37959477       0.09112846      -0.40186991       0.01510464       0.01969296      -0.00416532      -7.92476940
O        0.11866406       3.03853293       1.22159803       0.00000000       0.49053364       0.66759237      -0.83778201       0.01241229      -0.00097764      -0.01169130      -8.03824043
O        0.12594543       3.01321816       7.55551910       0.00000000      -0.22130264       0.26269201      -0.36920163      -0.00950418       0.02336258      -0.01817364      -8.03371811
O       -0.21521591       8.69673486      -0.14095481       0.00000000      -0.52828531       0.24673733      -1.42684275      -0.01333236      -0.02039251       0.00974634      -8.04016495
O       -0.22490433       8.66207190       6.19003667       0.00000000      -0.07844262      -0.46500924       0.65218621       0.03013406       0.01348153      -0.00328416      -8.03651333
O        3.07727552       3.03972773       0.48827135       0.00000000       0.76659859       0.27722230       0.08464470       0.00909220      -0.01140505      -0.01148060      -8.03658485
O        3.08329568       3.01746351       6.82365442       0.00000000       0.91713204      -0.21037626       0.07851484      -0.00305124      -0.00609925      -0.03039819      -8.03173542
O        2.73946586       8.69737866      -0.87646630       0.00000000      -1.17348594       0.23962764       0.09245393       0.00871990      -0.02224645       0.02531472      -8.03871822
O        2.73519429       8.66188959       5.45483812       0.00000000      -0.13436102       0.58441940      -0.06371121       0.00877520       0.01762411       0.01526326      -8.03197670
O        2.10487786       2.34260868       2.86371101       0.00000000      -0.39277266      -0.56951818      -0.04708546      -0.01191653      -0.00470313      -0.00383526      -8.03449535
O        2.10142920       2.32699970       9.20183113       0.00000000       0.12056463       1.04296820      -0.25353778      -0.01153316      -0.01090857      -0.01725307      -8.04034615
O        1.76019883       8.00310496       1.50290855       0.00000000       0.78954482      -0.62769915       1.37367703      -0.00717386      -0.01890373       0.01382631      -8.03219318
O        1.75817892       7.96989116       7.83039993       0.00000000       0.39404092      -0.15868454       0.01527497      -0.01603588       0.01257676       0.01142097      -8.04000473
O        5.06441735       2.34184260       2.13056305       0.00000000      -0.78962513       0.32801586      -0.13061709      -0.02047525      -0.00295871      -0.01039705      -8.03185654
O        5.05692504       2.32233433       8.46549793       0.00000000       1.32042322      -0.65790074      -0.52433457       0.00720945       0.01886064       0.00143570      -8.03703690
O        4.71775110       8.00326046       0.76940425       0.00000000       1.00972944       0.52393959      -0.75229920      -0.00254496      -0.02210894       0.01091352      -8.03371429
O        4.71273398       7.96862811       7.09776501       0.00000000      -0.83407333      -0.40043277      -0.04741401       0.01189283       0.01753175       0.00251225      -8.03551292
O        1.96206186       4.90858953       2.31236181       0.00000000      -0.55133348       0.25796055       0.19968953      -0.00313543      -0.01313376       0.00476460      -7.81891060
O        4.91743473       4.88942091       7.91560918       0.00000000       0.51903781       0.21078727      -0.21553764       0.00417759      -0.00200072       0.00407201      -7.81659031
O        1.63381646      10.56973129       0.96266872       0.00000000       0.58799047      -0.09573151      -0.27911370      -0.00591255      -0.01571774       0.01356430      -7.81618547
O        1.62256664      10.53907868       7.29515178       0.00000000      -1.51409464       0.78844259      -0.24367836       0.00754591       0.00568190       0.00101766      -7.80901003
O        4.92111150       4.90859447       1.57989154       0.00000000      -0.99543499      -0.66593474       0.28381274      -0.00744135      -0.01846898      -0.00413471      -7.82025766
O        7.87361136       4.88876879       7.18071027       0.00000000      -0.75212002      -1.08051652      -0.30478903       0.01302013       0.02106687       0.00619298      -7.81511402
O        4.59165333      10.56827161       0.22995848       0.00000000       1.45038841       0.04606319       0.68139894      -0.00521332      -0.01483673       0.00779431      -7.81573820
O        4.58115878      10.53692909       6.56449512       0.00000000       0.50666416      -0.11911962       0.17768061       0.00829005       0.01593551      -0.01929072      -7.81128311
O        0.25508912       0.47141951       1.74968831       0.00000000      -1.06514435       0.17873741       1.42628768      -0.00409361      -0.01067373       0.02197707      -7.81163263
O        0.26271338       0.44795256       8.09602701       0.00000000       0.11598445      -1.64151464       0.44874640      -0.00811293       0.00526091      -0.00065736      -7.81384087
O       -0.08594340       6.13278230       0.41283600       0.00000000       0.03506619      -0.09287364       0.41142262       0.00550991      -0.01202929      -0.00571381      -7.81486464
O       -0.08578544       6.09650958       6.73363785       0.00000000       0.86633695       0.82506804       0.96223954       0.00450131       0.00946668       0.00969182      -7.81977177
O        3.21345331       0.47223283       1.01687978       0.00000000      -1.04151304      -0.04005266      -0.28373552      -0.00598926      -0.00429344       0.01665135      -7.81114531
O        3.22046981       0.44733689       7.36265819       0.00000000       0.25557593      -0.88859923       0.57631502      -0.00595097       0.00217968      -0.00778531      -7.81652403
O        2.87143402       6.13211639      -0.32119151       0.00000000       1.01084682      -0.14980342       0.03631954       0.00890382      -0.01317897      -0.00625585      -7.81536722
O        2.87251331       6.09787872       5.99861671       0.00000000      -0.50507993      -0.02121243       0.26588915       0.00474153       0.00632653       0.01766174      -7.81980276
