80
Lattice="5.91569642 0.0 -1.46806091 -0.66675713 11.30069771 -2.68676537 0.0 0.0 12.65297174" Properties=species:S:1:pos:R:3:initial_magmoms:R:1:momenta:R:3:forces:R:3:energies:R:1 energy=-477.50140380859375 stress="-0.012254158034920692 0.0022268870379775763 -0.005360627081245184 0.0022268870379775763 -0.041511114686727524 0.003048674901947379 -0.005360627081245184 0.003048674901947379 -0.04165029525756836" free_energy=-477.50140380859375 pbc="T T T"
Ga       2.32734933       0.95522601      -0.52133721       0.10000000       1.37635919       2.70894100      -1.30658332      -0.01625652       0.00488181      -0.00571529      -3.10775733
Ga       1.44652175       1.29139067       7.14788005       0.10000000      -1.99445104       0.50910340       0.42055152      -0.00137727       0.00514922       0.00045858      -3.11230278
Ga       1.22054868       7.12054507      -0.40681903       0.10000000      -1.64083562      -0.81885152      -1.24107333       0.00481755      -0.00727746       0.00420197      -3.11808348
Ga       1.43766941       6.00105833       7.01845476       0.10000000      -0.05684149       0.28551655       0.72747044       0.00141360      -0.00592051       0.00273751      -3.23192310
Ga       4.78932046       0.16417584       1.43239372       0.10000000       0.07317140       0.36592661       0.69643732       0.00005154      -0.00352146       0.00515933      -3.17723179
Ga       4.44319280       1.26926077       6.41105314       0.10000000      -1.26550729       0.01498140       0.19591447      -0.00336478      -0.00178465      -0.00520768      -3.13197947
Ga       4.79005837       6.01704779       0.31305990       0.10000000      -1.30833199       2.81557106       0.49340234       0.04171549       0.00279137       0.02317411      -3.06110120
Ga       4.14461955       7.15218609       5.20079147       0.10000000      -0.10106864      -0.30849504      -0.20806469      -0.00121182      -0.00270016      -0.00529057      -3.25528717
Ga       0.44026571       3.21204510       2.69989178       0.10000000      -0.70690857      -0.57906981      -2.85942845       0.01024935       0.00198791      -0.00471514      -3.13608027
Ga       0.37453290       3.29945180       9.10676500       0.10000000      -0.78640651      -1.03541002       0.75557340       0.00201111      -0.00807202      -0.00604682      -3.06980395
Ga       3.07542774       9.05376212       0.79934298       0.10000000       2.06916113       1.66552028       2.30846044      -0.01095866       0.00639710       0.00618865      -3.17908525
Ga       0.16546927       7.91181410       9.06651132       0.10000000       0.73372914      -1.68553777       0.97448186       0.00441495      -0.00126245       0.00307251      -3.19730949
Ga       3.32428142       3.17789474       1.97754218       0.10000000      -2.34916321       1.26459206      -0.15313368       0.00626828       0.00886627       0.00927906      -3.12918425
Ga       3.35384118       3.43485360       8.17782955       0.10000000       0.94601517      -0.56120667      -1.73990269      -0.00393626      -0.01048051      -0.00233943      -3.14992666
Ga       5.93114086       9.03890366       0.08973502       0.10000000       3.32096510      -0.30340622      -0.93575764       0.00271091      -0.00046347      -0.02000768      -3.16066909
Ga       2.85430897       8.88254479       7.21478532       0.10000000       0.38134088       0.60552530       0.34084363      -0.00325743      -0.00961926      -0.00919394      -3.25492024
Ga       1.37305514       4.20606941       0.07174033       0.10000000       0.64997941       1.54130252      -2.45559173       0.00076456       0.01294969      -0.00231939      -3.15901470
Ga      -0.65317831       5.35295743       4.64313343       0.10000000      -1.63346270      -0.86273265       0.80423382       0.00538050      -0.01097311      -0.00128445      -3.19843721
Ga       1.00209946      10.02985845      -1.18897688       0.10000000      -2.68269596       1.72728529       0.19241327      -0.00213338      -0.00503961       0.00990553      -3.18203163
Ga      -0.15616866      10.54984366       7.15284528       0.10000000       2.27941903       1.25897765      -1.88812858      -0.00844299       0.00414798      -0.00722557      -3.05598831
Ga       4.30742714       2.85851601      -1.23821312       0.10000000      -1.42429331      -3.28347895      -0.75361529       0.00997754       0.00456680       0.00700033      -3.01236773
Ga       2.62892648       3.96028549       5.07628901       0.10000000       0.36022271       0.96009902       0.51447164       0.01206353      -0.01181026       0.00066920      -3.09454942
Ga       3.83845519       8.32676319      -2.35896183       0.10000000       1.43251504       0.49669013      -1.25786785       0.00298690      -0.01014033       0.00252770      -3.11096120
Ga       2.25906116       9.54881771       4.06787026       0.10000000       0.39097804      -2.83990282      -2.94631432      -0.00492719       0.00403675      -0.00496498      -3.12596846
Ga       2.28875530       0.77781795       4.05710812       0.10000000       0.18833834      -0.46106362       0.27638702       0.00736215       0.00453624      -0.00155075      -3.17979431
Ga       3.44269186       0.58633579       9.13318153       0.10000000       1.36616141       0.58969644       0.68361161       0.00126040       0.00660895      -0.00259102      -3.13405704
Ga       1.98233046       6.33995818       2.72036262       0.10000000      -1.41610722      -0.96185656       1.44510710       0.01766583       0.00419703      -0.00576972      -3.07299137
Ga       2.29771741       5.38711753      10.21662649       0.10000000       1.17812396       1.61212539      -0.45850577      -0.00541239      -0.01084572       0.00466955      -3.10982299
Ga       5.40287702       2.30516355       3.90885658       0.10000000       0.29157360      -0.47942256      -1.61468292      -0.00137432       0.00752953       0.00336094      -3.12812614
Ga       5.44473857      -0.40054266      11.04373815       0.10000000       0.62659749      -1.37192858       1.55794507       0.01562171      -0.00155365      -0.00518010      -3.17270708
Ga       5.17287432       9.51103410       3.15142972       0.10000000      -0.41778147       2.19709865      -0.20928724      -0.00764931       0.00318692      -0.02126643      -3.10579681
Ga       5.15489070       5.37908447       9.41498872       0.10000000      -1.34474332       0.03607110      -1.25821927       0.00837059      -0.00018372      -0.00349680      -3.12304473
O        0.96256224       1.02100973       5.33407283       0.00000000       0.24847466      -0.88810673      -1.15349267      -0.00493266       0.00498033       0.01055995      -7.74384022
O        0.71753092       0.73639673      11.40022546       0.00000000      -1.31699205      -0.36858121       1.31642179       0.01158631       0.00323820       0.01125741      -7.32701492
O        0.28363637       6.37755480       3.35428034       0.00000000      -0.02312850      -0.53613937      -0.35640315       0.00492179      -0.00309184       0.00312091      -7.41344213
O        0.68576008       6.63563412      10.40414523       0.00000000      -1.20952716      -0.22391214       1.35986580      -0.01066290       0.00636142       0.00564253      -8.17790604
O        4.04932276       1.03599475       4.57235871       0.00000000       0.28881188       0.14982524      -0.89442027      -0.00597015       0.00195768      -0.00211224      -7.73207331
O        3.89515799       1.07392348      10.99170816       0.00000000      -0.52492811       0.34950407      -0.93158229      -0.00296798      -0.00319430       0.00476372      -8.20480061
O        3.69596150       6.55417982       3.31828041       0.00000000      -0.14886751       0.10094600       0.48616721       0.01734507      -0.00020836      -0.00899577      -7.67174578
O        3.69681567       6.58197681       9.71996615       0.00000000       0.77412362       0.71229885       0.05869313      -0.00025474       0.00631371       0.00062054      -7.81248569
O        0.89606461       4.05780753      -1.78614016       0.00000000       1.16982089      -0.08178249       1.71175777      -0.01088941      -0.00959826      -0.00176933      -7.82539463
O        0.73524395       3.77464776       4.59131572       0.00000000       0.10886663      -0.08707707      -0.57816055       0.00278860       0.00049312       0.00816698      -8.05546379
O        0.38198362       9.60562543      -2.94538485       0.00000000      -0.39725399       0.10669488      -0.64892660      -0.00261378       0.01106426       0.00125510      -7.67048407
O        0.55743419       9.40266852       3.35424634       0.00000000      -0.86182525       0.94672640      -0.24947373      -0.01612014       0.00121249       0.01029638      -7.97497654
O        3.79346017       4.01232751      -2.55115148       0.00000000      -0.40938340      -0.44296860      -0.42435130      -0.00823990      -0.00232333       0.00100672      -8.06455612
O        4.00148571       3.75635640       3.78152569       0.00000000      -0.22322416       0.20283017      -0.34905224       0.01282069       0.00295035       0.00918332      -8.05863762
O        3.51655343       9.51771064      -3.70910487       0.00000000      -0.21465283       0.05506426      -0.20780519      -0.00422366       0.00875409      -0.00341141      -7.67834711
O        3.42497200       9.46309069       2.62764315       0.00000000       0.57383469      -0.05879709       0.29024506      -0.01430032      -0.00328766       0.00526905      -7.95457983
O        0.09388401       2.94247701       0.82299703       0.00000000      -1.33012809      -0.91001395      -0.40205257      -0.00198591       0.00119823      -0.00268549      -7.78112030
O       -0.06132136       2.56545381       7.29234272       0.00000000       0.60487818       0.93839061      -0.96103356      -0.00647309      -0.00894225       0.00382216      -7.87087059
O       -0.22329661       8.54625007      -0.37290247       0.00000000       0.05737907       0.07618240      -1.01183102      -0.00632289       0.00444257       0.00234058      -8.01686192
O       -0.55346750       8.76645585       6.25315051       0.00000000      -0.26628234       0.21545232       0.37200280      -0.00268865      -0.01306588       0.00592604      -7.47618484
O        2.84039674       2.78778561       0.03154578       0.00000000      -0.41881429       0.48051142      -0.04747995       0.00247730       0.00564008      -0.00505406      -8.18750095
O        2.86311582       2.72086677       6.43476289       0.00000000       0.21841776       0.56990066       1.08874463      -0.00726071      -0.01368594       0.00302625      -7.98380327
O        2.40655134       8.58521477      -1.08898065       0.00000000      -0.40837294       0.10936932      -0.05431254      -0.00514279      -0.00387581      -0.01091492      -8.06492329
O        2.56421590       8.32074018       5.34092173       0.00000000       1.68416325      -0.04499613       0.01182205       0.01221025      -0.01234160       0.00623947      -7.66109324
O        1.98228982       2.04917945       2.75303844       0.00000000       0.03388772      -1.58494127       0.81141290       0.00148923      -0.00594249       0.00036701      -7.77924585
O        2.02561858       2.03732744       8.88526687       0.00000000      -0.02757459       0.06692045       0.69339227       0.00254795      -0.00050786      -0.01418853      -7.79752207
O        1.65382834       7.70950445       1.38241247       0.00000000      -0.05344657       0.59188839      -0.22760129      -0.00645035       0.01139072      -0.00551327      -8.04152679
O        1.58646003       7.59268815       7.92413589       0.00000000       0.87005413      -1.25002468       0.12699266       0.01141770      -0.00160074      -0.00393274      -7.90007639
O        4.93466659       1.96505350       1.98170153       0.00000000       0.27309988      -0.11781464       0.31905066      -0.00790067      -0.00050670       0.00214854      -8.14549541
O        4.68403125       1.93279806       8.22724416       0.00000000      -1.31956463      -0.39215022       0.42996378      -0.01439169       0.00144523       0.00170586      -7.69763708
O        4.48067074       7.78870163       0.47243800       0.00000000       0.02619470      -1.04246137       1.82492065       0.00013087       0.01073670      -0.00217684      -7.60569429
O        4.37592147       7.56578236       7.06395003       0.00000000       0.17203484      -0.71061282       0.75878877      -0.00155181      -0.00509536      -0.00710073      -7.60078430
O        1.86161181       4.53090075       1.97440268       0.00000000      -0.17834587       0.74144903       0.73583484       0.00612700       0.00362355      -0.00136753      -8.03067112
O        1.78957640       4.68357161       8.40972247       0.00000000      -0.73624013      -0.91881032      -0.13254103       0.00574958       0.00235091       0.00162436      -8.13642311
O        1.44649965      10.30284183       0.75715541       0.00000000       0.21592678      -0.60804352       0.53444607      -0.00377812      -0.00419804      -0.01429014      -8.09891033
O        1.65757519      10.44264672       7.02870487       0.00000000      -0.34288405       0.29092720       0.69874507       0.00443980      -0.00071231       0.00054720      -7.66384220
O        4.67304421       4.43630134       1.30708566       0.00000000       1.42783790      -0.42845460       0.33163574       0.00851396       0.00744590       0.01073843      -7.85563755
O        4.83088323       4.56722796       7.71987683       0.00000000      -0.84749910       0.27179283       0.79194245      -0.00235519      -0.00468457      -0.00033972      -7.54956102
O        4.41519770      10.26684900       0.07320768       0.00000000       0.04194743       0.16045779       0.07474139      -0.00782013       0.00420207      -0.00134678      -7.66023016
O        4.11019111      10.47060879       6.56266656       0.00000000       0.22076718       0.24661995       0.43609841      -0.00803754      -0.00125939      -0.00989735      -7.85497379
O        0.15973772       0.01740652       1.59630605       0.00000000       0.71623154      -1.11124923       1.28928648      -0.00059575       0.00380579       0.00047055      -7.73250866
O        0.11475966       0.01678995       8.04004598       0.00000000       1.18854784      -0.36676232       1.27811178      -0.00273300       0.00435816       0.01620541      -8.15481567
O       -0.07665786       5.68589355       0.19742607       0.00000000       0.51732750       0.29906588      -0.75223968      -0.01274595      -0.00090319      -0.00754577      -8.00230694
O       -0.29510791       5.86993640       6.41014903       0.00000000      -0.57191793      -0.58555006       0.13264689       0.00978586       0.00845447       0.01378502      -7.78748226
O        2.99348773       0.04249739       0.93308834       0.00000000       0.55134500      -0.28744871       0.38877815      -0.00268005       0.00144768       0.00566090      -7.89016104
O        3.02917984       0.09920666       7.18473060       0.00000000       0.84689244      -0.47210756       0.31301753      -0.00579291      -0.00534338      -0.00724676      -8.18181705
O        2.61221433       5.68550004      -0.48353751       0.00000000      -0.11706218       0.38351388      -1.09898569      -0.01180953       0.00610701      -0.01606831      -7.77440357
O        2.69132447       5.65930363       5.72239115       0.00000000       0.58099994       0.34981163       0.71507004       0.00053498       0.00020891       0.01196770      -7.71337032
