80
Lattice="5.91569642 0.0 -1.46806091 -0.66675713 11.30069771 -2.68676537 0.0 0.0 12.65297174" Properties=species:S:1:pos:R:3:initial_magmoms:R:1:momenta:R:3:forces:R:3:energies:R:1 energy=-478.29254150390625 stress="-0.007462409324944019 -0.003324301913380623 -0.004690132569521666 -0.003324301913380623 -0.03498155251145363 -0.001048275618813932 -0.004690132569521666 -0.001048275618813932 -0.03650519996881485" free_energy=-478.29254150390625 pbc="T T T"
Ga       1.73560759       0.61818157       0.60863818       0.10000000      -0.83223678      -0.93312632       1.82671525       0.00128981       0.00035479       0.00871949      -3.21961451
Ga       1.38167765       2.15170313       5.63440776       0.10000000       1.31183502      -1.45104075       0.30668494      -0.00446047       0.03606591      -0.01330407      -3.10956573
Ga       1.32931976       6.22861286      -0.73584290       0.10000000      -1.02929795       0.08355884       0.05893867      -0.00565762       0.00431789       0.00173153      -3.18142843
Ga       1.25088740       6.16015466       5.67360073       0.10000000       0.71292974       0.40332007      -1.17675486      -0.00060289      -0.00637270      -0.01729008      -3.06605840
Ga       4.71489272       0.58342251      -0.12199644       0.10000000      -1.28198206       2.59451569      -0.09553137      -0.00222864      -0.00376103       0.00839116      -3.23400164
Ga       4.51476411       0.76895351       6.10625070       0.10000000      -1.34704352      -1.43698719      -0.17602812       0.00017798       0.00007080       0.00677935      -3.12316203
Ga       4.26200435       6.17064104      -1.53014474       0.10000000      -0.32112306       2.91132457       0.71985460       0.00623414       0.02344761       0.00614204      -3.19774556
Ga       4.31327905       6.49049555       4.82064659       0.10000000      -0.70001979      -0.03479269       0.14201593      -0.01805223      -0.00796001      -0.00486226      -3.17524576
Ga      -3.43734364       4.52009388       4.99363363       0.10000000      -1.75721845       0.59097889      -3.14372790       0.01953993       0.01536983       0.00499752      -3.17974424
Ga       0.63550568       2.73082418       8.83806932       0.10000000       1.64104595       0.96422949      -0.69603078       0.01195285      -0.01091343      -0.00731719      -3.16140270
Ga       0.21251162       8.34357294       1.07288957       0.10000000      -3.09134951       0.94587260      -1.17943584       0.01023875       0.01644104       0.01072907      -3.16327572
Ga      -1.11587539      11.51115630       8.14945436       0.10000000       1.25359790      -1.76514355      -0.26933658      -0.00543046      -0.01769163       0.01147580      -3.16394639
Ga       3.11494385       3.78856486       0.45916786       0.10000000      -0.64561168      -1.26155449      -1.95909832       0.00370921       0.00329780      -0.00272415      -3.19056296
Ga       3.52025669       2.77954053       8.10436033       0.10000000      -0.21652376      -0.77983282      -1.55183541      -0.00557887       0.00890662       0.00680178      -3.16040158
Ga       3.20477461       8.38463495       0.38345436       0.10000000       2.64465788       0.04781849       0.14938002       0.00132008       0.00869117       0.01036431      -3.18808842
Ga       3.20641119       8.48292953       6.83427239       0.10000000      -0.29715653      -1.46599360       2.88744241      -0.00573195      -0.01768851      -0.00937026      -3.14055014
Ga      -0.18686126       3.26192652      -0.70813448       0.10000000       1.67670387      -0.35032512       1.69356016      -0.00083379      -0.00582635      -0.00612986      -3.21219850
Ga      -1.32720729       3.71257048       6.84133111       0.10000000      -1.81916670      -0.43777788      -0.70173949      -0.01121085       0.01946650      -0.00101697      -3.12125897
Ga       2.48090044       9.03870737      -2.63866487       0.10000000      -0.28894846      -0.72502443      -0.14600477      -0.01811333       0.00926868      -0.00925671      -3.17568398
Ga      -0.66053053      10.19861996       2.94998663       0.10000000       0.59918283      -1.33481072      -2.07055994       0.00517317       0.00570807       0.00315049      -3.12435746
Ga       2.64201504       1.65080629      -1.99300413       0.10000000      -0.54786460      -2.89761861      -1.15378295      -0.00552826      -0.00195641       0.00076342      -3.20609498
Ga       0.43698187       2.86312300       2.48241658       0.10000000       3.42941351       1.73894518      -0.58209662      -0.00453509       0.00206203       0.01010424      -3.20247579
Ga       5.44169546       8.99373746      -3.40368730       0.10000000       0.20077201       0.96288216      -1.54468138      -0.00393138      -0.00213100      -0.00777403      -3.14196992
Ga       4.18212572       9.27110721       4.08456701       0.10000000      -0.89309576       0.84966773       0.65154542      -0.00329492      -0.01350568       0.00172495      -3.11904454
Ga       4.05027352       1.67197167       2.84739320       0.10000000      -0.82157899       0.72660728       1.84361737       0.01064800       0.00415599       0.01531269      -3.06698394
Ga       0.98904510      -2.82310444      10.22603672       0.10000000       0.93451012       1.49324680       0.82957771      -0.00232642      -0.00788674      -0.02502334      -3.15826464
Ga       5.07813857       5.85994563       1.69839639       0.10000000      -0.04975188       3.69633490       2.28167519       0.02353637      -0.00153675       0.01346716      -3.10193539
Ga       5.06441150       5.79645522       7.95556102       0.10000000       0.28531149      -1.04919235       0.42631425       0.00301067      -0.01110937      -0.01150675      -3.11538219
Ga       8.23638622      -0.17868290       2.28678326       0.10000000       1.35387277      -3.08459360       2.13187653      -0.00050952      -0.00292474      -0.00266614      -3.07988977
Ga       2.05872685      -0.46362483       8.07990797       0.10000000      -2.07242929      -0.32926850       0.12755487       0.00437048      -0.00125342       0.00180589      -3.08977580
Ga       8.06297969       7.57649654       1.48833039       0.10000000      -0.70593259       2.87504920       0.08277310       0.00846782      -0.00742479       0.00705637      -3.11496091
Ga       8.00698706       5.63283751       7.20864815       0.10000000       2.42374130       0.78737721      -1.08367345      -0.01139054       0.00145384      -0.01432924      -3.15913010
O        1.23011770       0.35018949       5.14042375       0.00000000      -0.65569837       1.01417060      -0.04684440      -0.00237103       0.00284350       0.00530822      -7.92828846
O        1.30680370       0.37431948      11.36108671       0.00000000       0.77259272       0.15864926       0.17615112      -0.00551268      -0.00329840       0.00752589      -7.64884090
O        0.97112298       6.09807362       3.76673334       0.00000000      -0.02447025       0.83930039      -0.33398410       0.02349579      -0.03443871      -0.02363110      -8.08797359
O        0.86880080       5.95324117       9.98671508       0.00000000       0.51062217       0.26539315       0.36439309      -0.02063252      -0.00250746       0.01309985      -7.85472298
O        4.18125924       0.31648052       4.23440791       0.00000000       1.28862817       1.21853395       0.24680577       0.00816051      -0.01022270       0.00985569      -8.09451580
O        4.17284709       0.39565611      10.66364770       0.00000000      -0.53540181       1.36127332       1.25394501      -0.00962043      -0.00116059       0.00070262      -7.67450285
O        3.67268393       6.06534067       2.96401915       0.00000000      -0.30534407      -0.20507623      -0.76807386       0.01656404       0.00017192      -0.01646113      -8.00886059
O        3.79618438       5.90966302       9.25332703       0.00000000       0.40245557       0.67569083      -0.00479802       0.01592469       0.00684776       0.01554027      -7.91362715
O        1.11341770       3.00067451      -2.02085175       0.00000000      -0.32279485       0.47668281      -2.19570250      -0.00014547      -0.01689926       0.00881444      -7.66539240
O        1.10486082       3.30732758       4.25323819       0.00000000       0.52958019      -0.80257444       1.15778708       0.00878966      -0.01379243       0.00651807      -7.72369003
O        0.76705654       8.73975268      -3.28451050       0.00000000       1.13464959       0.29238027      -0.05079143      -0.01443098       0.00584318      -0.00567578      -7.93515730
O        0.70537923       8.81268158       2.88798159       0.00000000       0.72747605      -1.61601282       0.84397369      -0.00236645       0.01181793       0.01541746      -7.45549202
O        3.96379670       2.99063986      -2.73512613       0.00000000       0.14197581      -0.44908282       0.86395174       0.00390045       0.00611624       0.01304237      -7.68903351
O        3.97545057       3.29411441       3.66908877       0.00000000      -0.06343420      -0.08042914      -0.25237809       0.02148899      -0.00173095      -0.01049037      -7.81864643
O        3.70253367       8.77838156      -4.00198309       0.00000000      -0.29110414      -1.10337965      -0.18352706      -0.00456190      -0.00356448      -0.00249792      -7.92811632
O        3.65059882       8.76555266       2.30318349       0.00000000      -0.74369177      -0.02355791       0.90543240      -0.01982632       0.01231922       0.00384575      -7.57198286
O        0.20859134       2.07646280       0.71336948       0.00000000      -0.82480546       0.25044078      -1.96114826       0.01142973       0.00388175      -0.00394404      -8.00807762
O        0.00820850       2.24179356       6.96706777       0.00000000       0.69605847      -0.19927693       0.83113133      -0.00603804      -0.00316794      -0.00088778      -8.07017708
O       -0.22353092       7.61847528      -0.69354226       0.00000000       0.43802231      -1.14816054       0.48058040      -0.01340094       0.01097587       0.00916582      -8.01576042
O       -0.28680922       7.84586455       5.79684699       0.00000000      -0.16008233      -0.05287256       0.06586415      -0.00362834      -0.00235987      -0.01507360      -7.63761520
O        3.08014834       2.01508482      -0.11645101       0.00000000       0.23652685      -0.02808752       0.16040329       0.01687440      -0.00060493       0.00395527      -7.99828529
O        3.21231635       2.27780808       6.19660616       0.00000000      -0.58274252       0.40464257       0.09055739      -0.00099507      -0.01121535       0.00816892      -8.07029438
O        2.77892642       7.64917204      -1.40972379       0.00000000       0.52005874      -0.45006253      -0.10370394      -0.01301473       0.00427720       0.00440872      -7.96679354
O        2.90341434       7.88536990       4.83509003       0.00000000      -0.36166420      -0.41367305       0.18977481      -0.01396686      -0.00596150       0.00291306      -7.81704712
O        2.25303543       1.21274503       2.47092204       0.00000000      -0.53316616       1.17317302       1.33973187       0.00381729       0.00498031       0.00775106      -7.92639589
O        2.14375226       1.33547723       8.70926807       0.00000000       1.25842688      -0.72490600      -0.01510562       0.00551616      -0.00452453      -0.00236395      -8.05004120
O        1.80128514       7.07746451       1.06304130       0.00000000      -0.03748401      -1.51463591       0.25114930      -0.01496703       0.01109922      -0.00481683      -7.71405029
O        1.81836228       6.98257981       7.32207058       0.00000000       0.00630145       0.22681379       0.25889687       0.00418562       0.00314116       0.00034724      -8.10080814
O        5.27710193       1.37138496       1.57490401       0.00000000       0.47070202       0.72169615      -0.36316157      -0.00434214       0.00335000       0.00115919      -7.74631882
O        5.11175819       1.38710931       7.88096861       0.00000000       0.22936284      -0.28229981       0.42457044       0.00426015      -0.01096708       0.00726230      -8.07201099
O        4.74000875       6.95218135       0.24223543       0.00000000       0.09762391      -0.21041109      -1.44360213      -0.00495186       0.01411015       0.00114548      -8.04612827
O        4.69385343       7.11941116       6.70279187       0.00000000       0.45137237      -0.45847017      -0.38130486       0.00278216      -0.01222372       0.00133795      -7.99898195
O       -1.04517044       4.13254931       2.50843672       0.00000000      -1.03051461       0.02829659       0.52187015      -0.00339403      -0.01386836      -0.01258726      -7.91761017
O        1.94700062       3.92089669       8.02318161       0.00000000      -0.25393230       0.05190679      -0.58310586       0.00341922       0.01137432       0.02421334      -7.79230261
O        1.59719473       9.52258274       0.28413883       0.00000000      -0.22504874       0.47956742       0.09099771       0.00134854       0.02512002      -0.00704893      -7.69503784
O        1.66935412       9.61416644       6.75182602       0.00000000      -0.72721844       0.62886923       0.77340216       0.00012822       0.00957322      -0.01149538      -7.79415131
O        1.87459786       4.01426722       1.82408807       0.00000000      -0.76564589      -1.02224635      -0.10770695       0.00966409      -0.01627758      -0.03576112      -7.76735497
O        4.91053976       4.01979556       7.29636680       0.00000000      -1.01469012       0.12587038       0.88470346       0.00591256      -0.01719210       0.00572622      -8.15575886
O        4.61954506       9.58294097      -0.17222574       0.00000000      -0.52063701      -1.01392881      -0.10714799       0.01068468       0.00485224       0.01372656      -7.53759098
O        4.63789683       9.70217741       6.03987716       0.00000000       1.07561792      -0.36657093       0.12464785      -0.00627475      -0.00498447      -0.00470269      -8.12347889
O        0.34305672      -0.55798550       1.25963368       0.00000000       0.15307885       0.32862338       1.44577672      -0.00761199       0.00975108      -0.01749247      -7.79793644
O        0.18271917      -0.63171278       7.52197075       0.00000000      -0.22535135      -0.32519754      -0.65064502       0.00515074       0.00642553       0.00420539      -8.13261509
O       -0.09278418       5.04269001      -0.18855209       0.00000000       0.83733434       0.65301736      -0.15797953      -0.00807972       0.00318861      -0.02069797      -7.78241444
O       -0.20191530       5.18619318       6.35987070       0.00000000       0.22370290      -0.26391254      -0.20468330      -0.01271018      -0.00491348       0.00160988      -7.65309191
O        3.31042626      -0.52698405       0.58798874       0.00000000      -0.44675376      -0.76161233      -0.69862380      -0.00507165      -0.00879973      -0.00321776      -7.73633671
O        3.46374743      -0.62114428       6.88358307       0.00000000       0.31868875       0.54596009      -0.22924434       0.00485837       0.00356296       0.00180337      -7.74672318
O        2.84640094       5.07973044      -0.81724408       0.00000000      -0.90423589      -0.73189767      -0.53356190       0.00587219       0.00462198       0.00583271      -7.80939436
O        2.94973796       5.14649415       5.35979220       0.00000000      -0.71419181      -0.00726695      -0.99888223       0.00343613      -0.01470509      -0.00250190      -7.76892948
