80
Lattice="5.91569642 0.0 -1.46806091 -0.66675713 11.30069771 -2.68676537 0.0 0.0 12.65297174" Properties=species:S:1:pos:R:3:initial_magmoms:R:1:momenta:R:3:forces:R:3:energies:R:1 energy=-482.39703369140625 stress="-0.035693977028131485 -0.0003308648301754147 0.0010889816330745816 -0.0003308648301754147 -0.032742828130722046 -0.001561253098770976 0.0010889816330745816 -0.001561253098770976 -0.031627122312784195" free_energy=-482.39703369140625 pbc="T T T"
Ga       2.13988105       1.79942328       0.40298152       0.10000000      -0.79351934      -0.91183474      -0.77270783      -0.00333240       0.00762992       0.02213097      -3.21059537
Ga       2.15554959       1.81582004       6.74289214       0.10000000       1.33625027      -0.83662761      -2.04337962      -0.01710415      -0.02151019       0.00446347      -3.21056557
Ga       1.82674369       7.46198898      -0.90358489       0.10000000      -1.57908445      -0.61977312      -0.18671605      -0.02626284      -0.00056700      -0.01175622      -3.21125245
Ga       1.80568982       7.44734443       5.41495708       0.10000000       2.12163212       1.43151437       1.36236471      -0.00286964      -0.00207137      -0.01099160      -3.21131063
Ga       5.09613078       1.79844866      -0.33395374       0.10000000      -0.01143604       0.27914892       0.80423532      -0.00018066       0.01214360       0.01797837      -3.21010375
Ga       5.11590879       1.81128400       6.01043243       0.10000000      -1.79164690      -0.58076090      -1.76047398      -0.02554142      -0.00021262      -0.00228471      -3.21125317
Ga       4.78107458       7.46734536      -1.63586719       0.10000000       0.99965681       0.82266836       1.51700713      -0.00314957      -0.02972644      -0.01763066      -3.21172929
Ga       4.76106005       7.44697478       4.68170326       0.10000000       0.49747014      -1.82349035      -0.93075638       0.00901054      -0.00156680      -0.01723954      -3.21039081
Ga       1.05716171       3.91535027       2.43206871       0.10000000      -0.68049803      -1.34201001       1.72836727       0.01734996       0.01134856       0.01424754      -3.21180201
Ga       1.07278613       3.93058422       8.77234683       0.10000000      -0.97837954       1.02505492       0.46002413       0.01202106      -0.00301327      -0.00804881      -3.21002388
Ga       0.76414134       9.58450719       1.11341440       0.10000000       0.44008682       0.29460499       1.01305509      -0.01139809      -0.01807576       0.00757712      -3.20975733
Ga       0.74491059       9.56288005       7.43233332       0.10000000       0.43240106      -1.59861775       1.49045520       0.00178681       0.00768488       0.01237995      -3.21116447
Ga       4.01581359       3.91657903       1.69746763       0.10000000       1.01264549      -0.57043837       1.36007436       0.01757292       0.00739812       0.01356494      -3.21132469
Ga       4.03075937       3.92800474       8.03509712       0.10000000       0.59751096       1.21006231       2.14801591       0.02030013       0.00563419       0.00514355      -3.21056795
Ga       3.72447336       9.57824194       0.38660053       0.10000000      -1.75359565       0.87900700       0.39280204      -0.03203814       0.00610699      -0.01593851      -3.21055818
Ga       3.70389300       9.56044614       6.70277547       0.10000000       1.08860434      -1.80912611      -1.51199698      -0.00017155       0.01820307      -0.01390010      -3.21157241
Ga      -2.65807907       4.53542783       0.05083842       0.10000000       1.05647469       1.37853308      -1.53281988       0.00122676      -0.00759272      -0.00585325      -3.16120410
Ga       0.27090891       4.52349219       5.63895133       0.10000000       0.59657897      -0.95552808      -0.20019418       0.03237882       0.00288815      -0.01122931      -3.16086221
Ga      -0.02372099      10.16985873      -2.02471326       0.10000000       0.25274601       2.46152408      -1.87963429      -0.01021536       0.00037603       0.01568433      -3.15936160
Ga      -0.01589882      10.18286694       4.31813146       0.10000000      -0.85287786      -0.25360566       1.35772643      -0.01796449      -0.00396145      -0.00999861      -3.15970254
Ga       0.29860005       4.54036196      -0.68049989       0.10000000       0.61011996       2.38660055       0.00001827       0.00474952      -0.02456605      -0.01241875      -3.16098022
Ga       3.22696573       4.51973540       4.90007295       0.10000000       0.69114022      -0.31547602       0.97713799       0.04248756       0.02452646       0.00832978      -3.16135693
Ga       2.93227086      10.16497698      -2.75845726       0.10000000      -1.21772144       0.34217808       1.55774187      -0.00213855       0.02860604       0.00937694      -3.15781522
Ga       2.93851567      10.18008918       3.58567806       0.10000000      -3.14009186      -3.65497373       1.89943186       0.01803134       0.01244801      -0.02008238      -3.15846014
Ga       2.94049807       1.20941998       3.54575942       0.10000000      -1.41160438       1.18698952      -1.25824820      -0.03074059      -0.00880864      -0.00795996      -3.15958619
Ga       2.91025423       1.19640931       9.86038544       0.10000000       1.23659125      -0.66484261       0.42173890       0.01214411      -0.00274216       0.01275760      -3.15870118
Ga       2.58098444       6.84418513       2.21255146       0.10000000      -2.46444355      -0.33376545      -0.03269764       0.00662347       0.00738660       0.00540935      -3.16149521
Ga       2.59438059       6.84976978       8.54898151       0.10000000      -0.82093611       1.55879305      -4.71863374      -0.00572613       0.00518029      -0.01132659      -3.16172409
Ga       5.89429692       1.21042902       2.80348537       0.10000000       0.15396563      -0.93091640      -2.25508501      -0.00386335      -0.01615812       0.02279723      -3.15887570
Ga       5.86792604       1.19501384       9.12466310       0.10000000       2.06171031      -1.18745898       2.97869588       0.01788614       0.00770136       0.01371467      -3.15932107
Ga       5.53973898       6.84691985       1.48312130       0.10000000      -1.73906163      -1.52447662      -1.06063890      -0.00668600      -0.00510841      -0.01252288      -3.16120243
Ga       5.55215008       6.85331879       7.81993910       0.10000000       1.02782404       0.56670273      -1.91226838      -0.00048712      -0.00515469      -0.02549627      -3.16157436
O        1.69775527       1.48026176       4.88362220       0.00000000      -0.05691713      -0.00797865      -0.34508672      -0.00451857      -0.00210050      -0.00162956      -7.92801332
O        1.67214354       1.47015337      11.19813288       0.00000000       0.00011128       0.31264381       0.31950218       0.01620266       0.01845066       0.01184103      -7.92883635
O        1.34543880       7.11603034       3.55391012       0.00000000       0.65902342      -0.00062676      -0.22979033      -0.00660205       0.01533911      -0.00908133      -7.92793179
O        1.35869957       7.12592420       9.89049586       0.00000000       0.38274720      -0.14983430       1.34797280      -0.00907742       0.00136701      -0.01281133      -7.92397976
O        4.66053616       1.48860842       4.14864399       0.00000000       0.47723707      -0.03323409      -0.63652519      -0.01141789      -0.00942447       0.00207794      -7.93053484
O        4.63078966       1.47906012      10.46029787       0.00000000       1.30846318      -1.03924727       0.33598473       0.01326037      -0.00353576       0.03306136      -7.92784786
O        4.29995445       7.12639076       2.81923975       0.00000000       0.38300208       0.88573380      -0.29324399       0.00808568      -0.00993059      -0.01854742      -7.92452955
O        4.31317057       7.13374892       9.15731159       0.00000000       0.27290323       0.42040123      -0.06507017       0.00321905      -0.01097739      -0.02351615      -7.92476273
O        1.53587894       4.26625368      -2.02074893       0.00000000      -0.98613573      -0.65872347       0.22837342       0.01017818      -0.02845394      -0.00805131      -7.92704105
O        1.50821111       4.23301537       4.29838565       0.00000000      -0.22312049       2.23002908       1.30674799       0.02620364       0.03524619       0.00394079      -7.92610407
O        1.21218220       9.87930721      -3.36145329       0.00000000      -0.06374526      -0.01281501      -0.60979682      -0.00055027       0.02967903      -0.00242305      -7.92741108
O        1.21936896       9.90988990       2.97606459       0.00000000       0.07090279       0.27164462      -0.17451115      -0.00166666      -0.02026600      -0.00716698      -7.92850733
O        4.49544102       4.26356688      -2.75690961       0.00000000      -0.27497007       0.75606597      -0.05179143      -0.00971571      -0.00688919       0.00215751      -7.92364073
O        4.46839893       4.25082955       3.56029611       0.00000000       0.42974877       1.07424770      -0.28967210       0.01907822      -0.01191823       0.00890848      -7.92680836
O        4.17164691       9.89051034      -4.09583513       0.00000000       0.88595470       0.01377385      -1.77213174      -0.00837068       0.00429804       0.00392210      -7.93007231
O        4.17829445       9.90914253       2.24727196       0.00000000       1.46729756       1.11905630       0.36373137       0.01070331       0.00054417      -0.02518550      -7.92928219
O        0.61279324       3.20856974       0.59846905       0.00000000       0.05294407      -0.00535744       1.02578738       0.00688304      -0.00161409       0.01556680      -8.03533077
O        0.61771375       3.21958473       6.93512677       0.00000000       0.76547749      -0.67107202       0.90812609       0.01074397      -0.02270424       0.00922617      -8.03625107
O        0.30503893       8.87090405      -0.71761238       0.00000000      -0.41478338       0.07292404       0.08044464      -0.01991187      -0.01667118      -0.01203585      -8.03588676
O        0.29241700       8.85582804       5.60335813       0.00000000      -0.02640857       0.04306978      -1.09555657      -0.00972392      -0.01094574      -0.00757909      -8.03465176
O        3.56953920       3.20522272      -0.13601256       0.00000000       0.13465904       0.64607085       0.89109717       0.00790855       0.01899561       0.01148894      -8.03845119
O        3.57621674       3.21694278       6.19717530       0.00000000      -0.13849075      -0.68726362       0.87501581       0.00791283      -0.01095122       0.02273342      -8.03547382
O        3.26191368       8.86679018      -1.45114974       0.00000000      -0.79179119       0.12621365      -0.83556435      -0.01473457      -0.00503033      -0.00627419      -8.03934860
O        3.24750766       8.85412540       4.87116829       0.00000000       0.49912340      -0.09835211       0.05836246      -0.00098868      -0.00051448      -0.01064524      -8.03689480
O        2.59268423       2.50776928       2.24198683       0.00000000       1.24858470       0.18342551      -1.26157359       0.00850738       0.01747221       0.01480380      -8.03448868
O        2.59887184       2.52558778       8.57837141       0.00000000      -1.10492184      -0.12629407       1.61477616      -0.00261477      -0.00684005      -0.00034273      -8.03676796
O        2.27999023       8.17269922       0.92790680       0.00000000      -0.14032808       0.26396490       0.28250951      -0.01664937       0.01213998      -0.02006903      -8.03454399
O        2.26971127       8.15538386       7.24762693       0.00000000       0.36006824       0.28438703      -0.07890825      -0.01111118       0.01376581      -0.01012373      -8.03612804
O        5.54698044       2.50896747       1.50311869       0.00000000       0.53835301       0.36933920       0.27557773       0.01575344       0.01592365       0.02873147      -8.03819656
O        5.55644358       2.52396723       7.84269050       0.00000000      -0.80988176      -0.04358508      -0.08834683      -0.00113028       0.00084472       0.00845286      -8.03791618
O        5.23792269       8.17607331       0.19725817       0.00000000      -0.02628412      -1.13673201       0.64915423      -0.01313006      -0.00674784      -0.03350335      -8.03764439
O        5.22623627       8.15534606       6.51406707       0.00000000      -0.54316948       0.32533040       0.68227779      -0.00897329       0.01663712      -0.01410520      -8.03760719
O        2.44604321       5.07854072       1.70567279       0.00000000      -0.94986208       1.44996633      -0.72236845       0.02304471       0.00182965       0.00953430      -7.81583261
O        2.46241614       5.08725410       8.03923220       0.00000000      -0.50869412      -0.31374289       0.27168178       0.00519754       0.00630915       0.01471977      -7.81278086
O        2.15598360      10.73776098       0.37918450       0.00000000       0.41997904       0.37387189      -0.39682676      -0.03035666      -0.00419161      -0.00901504      -7.81822824
O        2.13398638      10.72170989       6.69870980       0.00000000      -0.00037223      -0.49594358       0.41864603      -0.00388360       0.01539621      -0.01183501      -7.81608868
O        5.40519378       5.08126537       0.97273892       0.00000000      -1.41986270       0.39018356      -0.73604863       0.01672179      -0.00439593       0.00852486      -7.81318808
O        5.41985643       5.08987288       7.31143727       0.00000000       0.29903201       0.25581550      -1.07085502       0.01235123      -0.00755364      -0.00774154      -7.81167936
O        5.10681311      10.73835104      -0.35827963       0.00000000      -0.98500327      -1.08909103      -0.46364284      -0.00406583      -0.01403227      -0.00449008      -7.81717539
O        5.08831281      10.72172162       5.95968049       0.00000000       0.01541548      -0.92670319      -0.35825152       0.00597316       0.00320745       0.00452638      -7.81589985
O        0.75267527       0.64263879       1.13328981       0.00000000      -0.70488045      -0.50548828      -1.24641047       0.00376114       0.00850084       0.03432097      -7.81978798
O        0.77566738       0.65405279       7.49313659       0.00000000       0.02681623      -0.18272208       0.36566597      -0.02474633      -0.00897166      -0.02456549      -7.81678057
O        0.43178049       6.30587560      -0.17493430       0.00000000       0.09423897      -0.83742896       0.33711019      -0.00692781      -0.02449471       0.00106247      -7.81317377
O        0.41060590       6.28878729       6.13596944       0.00000000       0.98719444       1.31767557       0.42541662       0.01069718      -0.00337216       0.00850196      -7.81463861
O        3.70970779       0.63984201       0.39546419       0.00000000      -0.11390304      -0.95608109       0.68760791      -0.00331407       0.00666863       0.04059899      -7.81647825
O        3.72912663       0.65445613       6.75027196       0.00000000      -0.05547640       0.48466027      -0.17469795      -0.02096827      -0.01868984       0.00519820      -7.81521893
O        3.39300097       6.29957504      -0.90634020       0.00000000       1.49006083       0.55828900       0.23992959      -0.01436990       0.00756940      -0.00606827      -7.81052399
O        3.36808220       6.28480185       5.40111017       0.00000000       0.09115264      -0.16012237      -0.40747130       0.00343462       0.00660571       0.01202776      -7.81252718
