80
Lattice="5.91569642 0.0 -1.46806091 -0.66675713 11.30069771 -2.68676537 0.0 0.0 12.65297174" Properties=species:S:1:pos:R:3:initial_magmoms:R:1:momenta:R:3:forces:R:3:energies:R:1 energy=-482.40771484375 stress="-0.035488978028297424 -0.0003156304592266679 0.0011317927855998278 -0.0003156304592266679 -0.03266710415482521 -0.0014790662098675966 0.0011317927855998278 -0.0014790662098675966 -0.031267233192920685" free_energy=-482.40771484375 pbc="T T T"
Ga       2.25636319       1.59363471       1.20438658       0.10000000      -0.95330857       0.03501622       0.54033135      -0.02437115      -0.00435362      -0.01364474      -3.21131420
Ga       2.25701307       1.60423272       7.52938371       0.10000000       0.60961224       0.24803907      -1.63673315      -0.00125363      -0.00584407       0.00960290      -3.21070004
Ga       1.92890986       7.24634079      -0.13158687       0.10000000       1.37336488       3.51769842      -0.88382494       0.00084735       0.02089491      -0.00353908      -3.21100211
Ga       1.91629359       7.24498239       6.19131317       0.10000000      -1.99062206      -1.00467096       1.07362518      -0.01188434       0.02276332       0.01604396      -3.20992255
Ga       5.21123581       1.59113562       0.46744048       0.10000000      -1.65449255       1.38468817      -1.06083590      -0.00543239       0.01359827       0.00407671      -3.21123624
Ga       5.21402512       1.60456248       6.79665560       0.10000000       0.05477597       0.74883293       0.09130334       0.00926512      -0.00597999       0.00244643      -3.21098447
Ga       4.88799541       7.24912491      -0.86809201       0.10000000       1.36079213       1.68114684      -1.60294336      -0.01233527      -0.01550507       0.01016567      -3.21173859
Ga       4.87238709       7.25125581       5.45796466       0.10000000       0.92689561      -1.78125556       1.55227001       0.00341083      -0.02589250      -0.00021480      -3.21169233
Ga       1.18090108       3.71141423       3.22269507       0.10000000       0.54388397       1.79665026      -1.25286177       0.00371291      -0.00861347       0.02064049      -3.21039867
Ga      -0.25208469       6.64458660      10.05062264       0.10000000      -1.12769072       2.03924364      -1.78053236      -0.01001453       0.00974890      -0.00579819      -3.16095495
Ga       0.86132192       9.36482279       1.89364555       0.10000000      -1.12146147      -1.79710377      -0.86913545       0.00998428      -0.00328559      -0.00619301      -3.21027970
Ga       2.36311095      12.29503338       7.96925431       0.10000000      -0.15006934      -0.17949592      -0.34134190      -0.00641190       0.00841319      -0.01607893      -3.16043210
Ga       4.13987214       3.71126536       2.48890079       0.10000000      -1.18385114      -0.15630871      -2.26438545      -0.00506798      -0.00354047       0.00406661      -3.21128273
Ga       4.14074148       3.72114439       8.82220615       0.10000000      -1.39669603      -2.40448628       0.56765782       0.01601507      -0.00422828      -0.00379344      -3.21136189
Ga       3.82164441       9.36240198       1.16016336       0.10000000      -0.22981887       1.21075734      -0.55022197      -0.01348068      -0.00229700      -0.01296800      -3.21061850
Ga       3.80842879       9.36496414       7.48151723       0.10000000      -0.17558327       1.61573075       0.45715170      -0.00496571       0.00275921       0.00121067      -3.21055841
Ga       0.41420872       4.32034695       0.10716736       0.10000000      -0.62919401      -1.42232232       1.10887334      -0.01054608       0.00417122      -0.01989657      -3.15981483
Ga       0.40051238       4.32272472       6.42576545       0.10000000       0.78057425       0.16630661      -0.85243063       0.00706869      -0.01755714      -0.01518928      -3.16035795
Ga       0.06912433       9.96427622      -1.23726575       0.10000000       0.25151481      -1.65562068       1.20169171       0.01705278      -0.00379859       0.00199375      -3.15988469
Ga      -2.86728345       9.97453216       5.82589924       0.10000000       0.50389880       0.08017432       1.44527617      -0.02680116      -0.00206561      -0.01985282      -3.15965009
Ga       3.36824201       4.31871950      -0.63536824       0.10000000      -0.49011152       1.12907762      -0.45083629       0.00702746       0.00675055       0.01169503      -3.16088295
Ga       3.35818769       4.32126610       5.68933387       0.10000000      -1.16964335       0.21317447      -3.69383774       0.01735285      -0.00677072       0.01301050      -3.16111207
Ga       3.02864860       9.96418608      -1.96809443       0.10000000      -1.19192901      -1.96423874       0.63417111       0.01008947      -0.00014424      -0.00117967      -3.15964460
Ga       0.09040002       9.97516040       5.09365784       0.10000000      -1.10663485      -0.83320654      -1.26870578      -0.01951439       0.00013138      -0.01961268      -3.16064429
Ga       3.04066942       0.99094820       4.32999518       0.10000000      -1.31407939      -2.37737861      -1.86778958      -0.01661134       0.01738789       0.01025636      -3.15967822
Ga       1.18228344       3.72162870       9.55432277       0.10000000       1.76917525      -2.07559423      -1.07731330       0.01742973      -0.00793127       0.00334472      -3.21117520
Ga       2.68504107       6.63734724       2.99192221       0.10000000       1.71343745       0.70840626       0.04979073       0.01055811      -0.00230584       0.00557885      -3.16023660
Ga       2.70715628       6.65036971       9.32172378       0.10000000       2.18010676      -0.20347268      -0.57709614      -0.01473467      -0.01244996      -0.00691035      -3.16011786
Ga       5.99598720       0.99257351       3.59392476       0.10000000       3.72683899      -2.31139286      -0.38293728       0.00008969       0.00662877       0.00884414      -3.15951085
Ga       5.98881697       0.99935042       9.92122453       0.10000000       3.15005792       1.45946571       0.86009946      -0.00701522      -0.02193128       0.00521024      -3.15953326
Ga       5.64284013       6.63776050       2.26217249       0.10000000       1.12056554      -0.23038236       1.15048428       0.02153517       0.00585246      -0.01584544      -3.16065168
Ga       6.76595057       9.36602429       6.74959623       0.10000000       1.14004592       1.43047832      -0.63610989      -0.00564618      -0.01295507      -0.01744866      -3.21113420
O        4.75975185       1.27595743       4.93426699       0.00000000       0.40614069       0.14189868       0.65667815      -0.01395185      -0.01831087       0.00816682      -7.92845583
O        1.79346765       1.26999517      11.99653103       0.00000000      -0.28604931      -0.50974199      -1.35637691      -0.00246164      -0.01048899      -0.01391819      -7.92680979
O        1.44926479       6.90970154       4.33310599       0.00000000       1.15940435      -1.69391477       0.99282148       0.01629722       0.02415316       0.00295565      -7.92933893
O        4.42904524       6.92392139       9.92373723       0.00000000       0.31898268       1.35789172       1.00500931      -0.03608082      -0.00555287       0.00782236      -7.92677307
O        7.71587558       1.27054730       4.19979283       0.00000000       0.06104037       0.60319551       1.26361362      -0.00009446      -0.00252207       0.00999141      -7.92927170
O        4.74989851       1.27011499      11.26074473       0.00000000      -0.58594014      -1.01549093       1.27688260      -0.00402734      -0.00245158      -0.00582042      -7.92923212
O        4.40513688       6.91030820       3.60059980       0.00000000      -0.62613706       2.18139599       0.01543158       0.01451651       0.02072228      -0.01632461      -7.92751741
O        7.38206590       6.91805859       9.19249311       0.00000000       0.38480598       0.34613641      -1.28282709       0.00065870       0.00904921      -0.00204849      -7.92596388
O        1.64632604       4.04683071      -1.23805545       0.00000000      -0.85451635      -1.52959280      -0.61518420       0.01188619      -0.00173774       0.01558459      -7.92526817
O        1.63807825       4.04241176       5.08444756       0.00000000       0.57821097      -0.75214056      -0.21670978       0.00922571       0.00228503       0.01278967      -7.92745972
O        1.30957673       9.68562818      -2.57413717       0.00000000      -0.95166947      -0.60507494      -0.52701984       0.00470179       0.01109108      -0.01633161      -7.92961121
O        1.32703296       9.69657497       3.75398846       0.00000000      -0.61762487      -0.91051944       0.95415140      -0.02139981      -0.00887387      -0.01240388      -7.92943716
O        4.61008812       4.05237369      -1.97185617       0.00000000      -0.37273351       0.81941946      -1.05272777      -0.00933617      -0.01758449      -0.00165042      -7.92615986
O        4.59679783       4.04547565       4.34992166       0.00000000      -1.03932311      -0.10352512       0.59250199       0.00654031      -0.00381128       0.00774887      -7.92587090
O        4.26446878       9.68900185      -3.31005432       0.00000000       0.86586122       0.32480089      -0.59720291       0.01991115       0.01010861      -0.00365344      -7.92806625
O        4.28545283       9.69643617       3.01914690       0.00000000      -0.60575334       1.01028238      -0.16384354      -0.00479798      -0.00421393      -0.01415995      -7.93024111
O        0.73074284       2.99512133       1.39090608       0.00000000       0.10991690       1.34544812      -0.23378220       0.00369985       0.03981799       0.01685008      -8.03617954
O        0.72965213       3.00889245       7.71856875       0.00000000      -0.66152411       0.65875085      -0.37710565       0.01852648       0.00158659       0.01152703      -8.03830814
O        0.40485826       8.65480093       0.05762226       0.00000000       0.01385030      -0.38982552       0.71150001      -0.00656301      -0.01612985       0.00650379      -8.03503609
O        0.39182066       8.65379399       6.38379200       0.00000000       0.65282362       0.91427931       0.20085149       0.04414470       0.00024825      -0.00694656      -8.03496456
O        3.68867846       2.99798523       0.65404320       0.00000000       1.34337704      -1.03968088       0.36737371      -0.00440811       0.01366079       0.02330148      -8.03441906
O        3.68894606       3.00853214       6.98474901       0.00000000      -1.37844249       0.56204739       0.85142588      -0.01976176       0.00261205       0.00301185      -8.03820992
O        3.36390613       8.65159708      -0.67712261       0.00000000      -0.19644982       0.64927117      -0.70046785      -0.02133757       0.00070626       0.01594812      -8.03445721
O        3.35504407       8.65296800       5.64772087       0.00000000      -0.50347729       0.14711630       0.02384815      -0.01063956       0.00647521       0.00588208      -8.03979111
O        2.71155310       2.30509703       3.03640893       0.00000000       0.69265104      -0.47693395       1.12498654      -0.01673542       0.00311059       0.00037274      -8.03690910
O        2.71057138       2.31457720       9.36535408       0.00000000       0.57197950      -1.31137666       0.64028859      -0.00975920      -0.00052774      -0.00271541      -8.03409100
O        2.38189627       7.96166248       1.70484684       0.00000000      -1.35274949      -0.12659309      -0.19718650      -0.00853988      -0.02202392      -0.03191382      -8.03779030
O        2.37177808       7.95835710       8.02474615       0.00000000      -0.90966328       0.30156047       0.26753344       0.01762921       0.00912517       0.00681069      -8.03543663
O        5.66533606       2.30511716       2.29957904       0.00000000      -0.39554541       0.90227101       0.28264894       0.01276875      -0.00251475       0.01586297      -8.03685665
O        5.66686529       2.31815843       8.63162762       0.00000000       0.08661275      -0.29550719      -0.26962492       0.00317739      -0.03072762      -0.00538117      -8.03698444
O        5.34020586       7.95680767       0.96785943       0.00000000       0.16273203      -0.37287100      -0.64106050      -0.01688944       0.02286667       0.01194227      -8.03844547
O        5.33030563       7.95865578       7.29157707       0.00000000      -0.70866767       0.47587972       0.13958102       0.01557348       0.01834831       0.00817612      -8.03533936
O        2.56702472       4.87025559       2.48639526       0.00000000      -0.19938314      -0.94620246       0.42620300       0.00686451       0.00725964       0.02047479      -7.81475592
O        2.57329811       4.88150515       8.83022453       0.00000000       0.54257669       1.00360556       0.15084438       0.01339846      -0.01561126      -0.02557510      -7.81520271
O        2.25195750      10.52103012       1.15907851       0.00000000      -0.05030540      -1.07353713       1.15895221      -0.00912170       0.01998484      -0.00876644      -7.81518269
O        2.23790629      10.52424898       7.48026650       0.00000000       0.93275461      -0.57792498       0.43056240       0.00004101       0.00361204      -0.00002654      -7.81812048
O        5.52558928       4.87156603       1.75596093       0.00000000       1.21426465      -0.43223987       0.43868433       0.00484107      -0.00520623       0.00576799      -7.81427765
O        5.52795988       4.87910189       8.08565575       0.00000000      -0.05185407       0.26811617       0.26531362       0.02173873      -0.00238743      -0.00302777      -7.81289196
O        5.20626446      10.52232586       0.42011942       0.00000000      -0.32636035      -0.03948825       1.07362380       0.00908937       0.01118314       0.01292178      -7.81756353
O        5.19666828      10.52736076       6.74844278       0.00000000       0.06259842       0.61882886       0.27447109       0.00224153      -0.00631055       0.00384431      -7.81591702
O        0.86460034       0.43373919       1.93244294       0.00000000       0.06190634      -0.39976528       1.37822755       0.00764982       0.00293446       0.02697498      -7.81593513
O        0.87075213       0.44537262       8.26905407       0.00000000      -1.05861194       0.23393152       0.48748188       0.00574124       0.00036570      -0.00842772      -7.81578207
O        0.54232667       6.08866785       0.60510972       0.00000000       0.61717965       0.23793957       0.38897994      -0.01519216      -0.00736290      -0.01509136      -7.81406879
O        0.52500413       6.08981548       6.92117362       0.00000000      -0.68199422      -0.53012374       1.17984337       0.00427854      -0.01044604       0.00989927      -7.81298065
O        3.82347363       0.43296131       1.20534453       0.00000000      -0.59967378      -0.65381084       1.28402385       0.00428122       0.00842878      -0.00232776      -7.81771469
O        3.82929520       0.44405190       7.53584947       0.00000000      -0.42999092       0.44517194       0.70984630       0.00342462       0.00210071      -0.01772124      -7.81608200
O        3.49729334       6.08740622      -0.13779638       0.00000000      -0.70439283       0.91497407       0.56742995      -0.00198814      -0.00048366       0.00405510      -7.81214190
O        3.48495768       6.08779433       6.19162055       0.00000000      -0.01118961       0.25371164      -1.03335390      -0.00511483      -0.00820649      -0.01097603      -7.81193972
