80
Lattice="5.91569642 0.0 -1.46806091 -0.66675713 11.30069771 -2.68676537 0.0 0.0 12.65297174" Properties=species:S:1:pos:R:3:initial_magmoms:R:1:momenta:R:3:forces:R:3:energies:R:1 energy=-482.40618896484375 stress="-0.035549141466617584 -0.0004045876848977059 0.0010844392236322165 -0.0004045876848977059 -0.032636407762765884 -0.0015152685809880495 0.0010844392236322165 -0.0015152685809880495 -0.03139647841453552" free_energy=-482.40618896484375 pbc="T T T"
Ga       1.90146153       0.90651000       1.49477930       0.10000000       0.72698215       1.01341228       0.81997111       0.00168172       0.00146797      -0.00966038      -3.21086144
Ga       1.89051122       0.91793388       7.82322379       0.10000000       0.27919224       0.22719680      -0.78399807       0.00204908      -0.00243406       0.00435012      -3.21094871
Ga       1.55929302       6.55780987       0.16702282       0.10000000       0.42922362       0.54677666      -0.30503610      -0.01248264       0.00897302      -0.00796975      -3.21086335
Ga       1.56107807       6.56205577       6.48692293       0.10000000       0.18300642       0.47133807       0.40743427       0.01262839       0.00662244       0.00870796      -3.21105361
Ga       4.85885249       0.90616271       0.75727869       0.10000000      -0.27659392      -0.47236761      -0.12359119       0.00640984       0.00785856       0.01428933      -3.21085382
Ga       4.84755159       0.91780573       7.09084396       0.10000000       0.31298962      -0.30804249       0.28110565       0.01348998      -0.00105191       0.00028462      -3.21057820
Ga       4.51641360       6.55662088      -0.56867992       0.10000000      -1.12575975      -0.47988775      -1.46361553      -0.00308273       0.01615010      -0.00285378      -3.21197200
Ga       4.51846458       6.56517546       5.75421460       0.10000000       0.13934595      -2.63601524       3.51178129       0.01352654      -0.00530145      -0.00275905      -3.21050930
Ga       0.83379787       3.02453561       3.51395398       0.10000000       1.54918654      -1.45970146       1.47294296      -0.00897500      -0.00689678       0.01667498      -3.21141386
Ga       0.82756303       3.03734425       9.84449145       0.10000000       0.04643499      -0.92331374       2.20240262       0.00957525      -0.01414141       0.00302264      -3.21133924
Ga       0.48565455       8.67300206       2.19173403       0.10000000       0.04792903      -1.62289103       2.05026420       0.00037211       0.01929326      -0.00780055      -3.21075892
Ga       0.49233478       8.68179858       8.51121194       0.10000000       1.45696276       1.05046551      -1.43478716       0.00630688      -0.00049783      -0.00081461      -3.21131516
Ga       3.79104743       3.02087082       2.78256851       0.10000000      -0.96024006      -0.29846587       1.34120316       0.00676105       0.01755558       0.00104919      -3.21130013
Ga       3.78570474       3.03432651       9.10945122       0.10000000       0.32988757      -2.39166189       0.35783784       0.00808165       0.00998551       0.01629134      -3.21121573
Ga       3.44627703       8.67551275       1.46092333       0.10000000      -0.97040113      -0.56516723       0.84631450      -0.01520777      -0.00249710      -0.02069473      -3.21056318
Ga       3.44785446       8.68267610       7.77666319       0.10000000       0.65362630      -0.54806483      -0.58303903       0.01870659      -0.00454934       0.00017219      -3.21040916
Ga       0.05784759       3.63113030       0.38863026       0.10000000      -0.55277284       1.86186774       2.34918105      -0.00641910       0.00192448       0.02662514      -3.16099000
Ga       0.06253703       3.63689340       6.71352128       0.10000000      -2.59275457       0.51730334      -1.98149434      -0.00722475      -0.00596202       0.00927501      -3.16112566
Ga      -0.28396841       9.27396204      -0.94264937       0.10000000      -1.27004988       1.96918715      -1.28206160       0.00082747       0.01890639       0.00029552      -3.15931892
Ga      -0.29901215       9.28883450       5.39465272       0.10000000      -0.11244080       1.96863795       1.65035541       0.01413170      -0.00253336      -0.02071176      -3.15935755
Ga       3.01654327       3.63278416      -0.34136456       0.10000000      -0.69504868      -1.01967606      -2.79197962       0.00102841      -0.01165644       0.00465593      -3.16085076
Ga       3.01977515       3.63514526       5.97680708       0.10000000       1.74888390       2.81359195       1.32038438      -0.00544029       0.00624548       0.01721717      -3.16077781
Ga       2.67609769       9.27850499      -1.66915001       0.10000000      -1.44274654       0.91034831       1.97640060      -0.00335274       0.00305986      -0.02277410      -3.15946841
Ga       2.65579716       9.28786610       4.65946340       0.10000000      -3.81041136       1.03006239       0.41346331       0.03969571      -0.00825760      -0.01507070      -3.15946698
Ga       2.66781673       0.30251628       4.62703815       0.10000000      -0.70037739      -1.27179506       0.96716394      -0.00255208       0.01116278      -0.00742714      -3.15989923
Ga       2.68092256       0.31051368      10.93955964       0.10000000      -1.09477890      -1.50944284      -0.14940472      -0.00889840       0.00706844       0.02466883      -3.15996361
Ga       2.33615417       5.95238294       3.28956488       0.10000000      -0.96478986      -0.62193274      -2.30137342       0.00219707       0.00385089       0.00212943      -3.16043377
Ga       2.32860616       5.96228091       9.61857152       0.10000000      -0.18577628       0.27847098      -3.20448213       0.01950031       0.00053769      -0.00415273      -3.16070485
Ga       5.62549642       0.30494165       3.89206698       0.10000000       1.15862794       0.44332953      -3.05393554       0.00231356       0.01102896      -0.00944567      -3.15989208
Ga       5.64171205       0.31260881      10.21173204       0.10000000       2.10256694      -0.26165525      -0.96604374      -0.02064659      -0.00497836       0.00415275      -3.15991688
Ga       5.29299654       5.94984685       2.55638306       0.10000000       2.88769104      -0.36710160      -0.58403535       0.01149984       0.00520448      -0.00514258      -3.16083121
Ga       5.28706782       5.96324670       8.88282973       0.10000000      -2.18677105      -0.88367688       3.09452372       0.00249576      -0.00275935       0.00730786      -3.16028500
O        1.43007702       0.58194041       5.96590921       0.00000000       0.93077834      -0.97207265       0.73467413       0.01051733       0.00230394      -0.00937954      -7.92856216
O        1.44657395       0.58807402      12.28331308       0.00000000      -0.13069394      -0.41391504      -0.19859555      -0.02363215      -0.00905856       0.00358641      -7.92840576
O        1.09771836       6.23443932       4.62708075       0.00000000       0.45580390      -0.30486689       0.16780165       0.00707508      -0.01939241       0.00060639      -7.92950630
O        1.09185700       6.23517795      10.95906716       0.00000000       0.60219420      -1.06948340      -0.57592835       0.01390643       0.00887164      -0.00813994      -7.92491627
O        4.38778884       0.58617011       5.23054846       0.00000000       1.60140743      -0.08889261      -1.03934521       0.00154031      -0.00722400       0.00426668      -7.92833996
O        4.39956653       0.58841386      11.54817822       0.00000000      -0.24571818      -0.97717954      -0.39342151      -0.00617723      -0.01195686       0.01460743      -7.93055773
O        4.05614863       6.23263215       3.89475464       0.00000000      -0.22133430      -0.82185982      -0.89111411      -0.00058568      -0.00807697      -0.00965044      -7.92777061
O        4.04993796       6.23612719      10.22319540       0.00000000      -0.93118499      -0.53019927      -0.26899693       0.00796679       0.00202605      -0.00014070      -7.92471123
O        1.29644767       3.36716445      -0.95013105       0.00000000       0.33221365       0.06155560      -1.02552158      -0.01802979      -0.02965300       0.00997147      -7.92598057
O        1.29896363       3.35183664       5.37514645       0.00000000       0.48923417       0.16342524      -0.72116105      -0.00184114       0.02369192       0.00602594      -7.92807198
O        0.95661190       9.00626330      -2.28155321       0.00000000      -0.18671536      -1.18109875       0.17795401      -0.00689294       0.00151108      -0.00246167      -7.92938328
O        0.93768673       9.01021575       4.05321684       0.00000000      -1.03351823      -0.51171174      -0.50219339       0.02203640      -0.00360991      -0.01037490      -7.92637682
O        4.25212489       3.36502435      -1.68412369       0.00000000       0.72498336       1.38107723      -1.69786128      -0.01054262      -0.01942317       0.02461928      -7.92491007
O        4.25862730       3.35645803       4.63993246       0.00000000       0.50100587       1.14946082       0.16550644      -0.02154673       0.00534587       0.01177070      -7.92833948
O        3.90944166       9.00360428      -3.01469177       0.00000000      -0.08794947       0.94032155       0.02986601       0.00044481       0.01563160      -0.00371841      -7.92865133
O        3.89752717       9.00945274       3.32246229       0.00000000      -0.11625529       0.43789024       0.54418188       0.00623543      -0.00279294      -0.02980354      -7.92927456
O        0.38033803       2.31283698       1.68029685       0.00000000      -1.61262197       0.23413759       0.12646072      -0.00452571       0.00624600       0.01090506      -8.03752804
O        0.37864041       2.32456236       8.01049363       0.00000000       0.11050803      -0.74728017       1.03369009      -0.02957679      -0.00636628       0.00785691      -8.03533268
O        0.02661704       7.96297414       0.35748010       0.00000000       0.40101370       0.14521303       0.62000806       0.03886274       0.01162550      -0.01997939      -8.03513432
O        0.03629289       7.96977099       6.67950253       0.00000000       0.20939680       0.71543734       0.32950495      -0.02295728      -0.00484580      -0.00297090      -8.03456211
O        3.33729450       2.31488598       0.94963133       0.00000000       1.09467231       1.09669977       0.24307220      -0.00164817      -0.00832421      -0.00324151      -8.03561687
O        3.33585853       2.32262765       7.27460122       0.00000000       0.07386669       1.07893713       0.08465591      -0.01448602      -0.00467983       0.01458648      -8.03952122
O        2.98727761       7.96433237      -0.37417435       0.00000000       0.56350629      -0.52251412       0.04658123       0.02396617       0.00248617      -0.01896167      -8.03315639
O        2.99205469       7.96744112       5.94485081       0.00000000       0.29770987       0.90084399      -0.14733879      -0.00406387       0.01484090      -0.00248265      -8.03779793
O        2.36034338       1.61808945       3.32900735       0.00000000      -0.32781693       0.86690204       0.49168047      -0.03726465       0.00103542      -0.00707850      -8.03818703
O        2.35330139       1.62862542       9.65185094       0.00000000      -0.81416689       0.57424315       0.31530887       0.00082472       0.00376520       0.02185476      -8.03416634
O        2.00915939       7.27197292       2.00208170       0.00000000      -0.32512133      -1.28899937      -0.44994522       0.00626624      -0.01437417      -0.01148993      -8.03927231
O        2.01080962       7.27448004       8.32179656       0.00000000      -0.06344073      -0.84903103      -0.04798596       0.01476184       0.00667578      -0.00027150      -8.03561974
O        5.31868732       1.61680795       2.59063324       0.00000000      -0.15008650       0.09572463       0.53192497      -0.02439373       0.00050613       0.01869974      -8.03478336
O        5.31249648       1.63111226       8.92255464       0.00000000       0.94073977      -0.01197846       1.49463693      -0.00450335      -0.01298013      -0.00603712      -8.03573513
O        4.96713702       7.26779778       1.26728995       0.00000000       0.88483262       1.57055460       0.34063695       0.00619110       0.02141383      -0.00918147      -8.03680038
O        4.97052165       7.27912446       7.58902542       0.00000000      -0.80880728       1.87937979      -0.32879151      -0.00024243      -0.02559021      -0.00474459      -8.03698254
O        2.22053485       4.18606113       2.78530025       0.00000000      -1.61785057      -0.58834622      -1.39231320       0.00764089      -0.01040375       0.01449439      -7.81383514
O        2.21814326       4.19458606       9.12044493       0.00000000       0.36762490       0.89498693       0.36552835      -0.01558395       0.00044185      -0.03068067      -7.81338406
O        1.87384802       9.83305180       1.45367928       0.00000000      -1.08392488      -0.86224693       1.95308508       0.00252563       0.01167735       0.00738272      -7.81370592
O        1.87877844       9.84111961       7.76716319       0.00000000       0.16328114      -0.40492008      -0.71358623       0.00985696      -0.00774652       0.02070215      -7.81879187
O        5.17814585       4.18300395       2.05357711       0.00000000      -0.74874718       0.87067777      -2.29987611       0.00659938       0.01877654       0.00203741      -7.81426525
O        5.17430527       4.19639304       8.38282137       0.00000000       0.49662694      -0.25725239      -0.15420465      -0.00931380      -0.01672235      -0.01371101      -7.81234455
O        4.83240652       9.83452757       0.72189673       0.00000000      -0.12082966       0.13930194       0.22242876      -0.00426023      -0.00727728      -0.00191014      -7.81545734
O        4.83929381       9.84219252       7.04075559       0.00000000       1.43290882       0.30521152       0.50899000       0.00186250      -0.00412109       0.00544833      -7.81590509
O        0.51207370      -0.25410833       2.22487146       0.00000000       0.56458023       0.88719103      -1.31835405      -0.00747272       0.01517975       0.00847733      -7.81718636
O        0.49938982      -0.23948106       8.56031811       0.00000000       0.63434743      -0.13573770      -0.37892465       0.01053512      -0.02198479       0.00934091      -7.81531286
O        0.17206064       5.39766987       0.89525331       0.00000000       0.48964234      -0.76227019       0.63632115       0.00152782       0.00624099       0.00445384      -7.81364107
O        0.17417042       5.40356855       7.21739311       0.00000000      -1.07569343      -0.87553537       0.60120156      -0.00093000      -0.00472072      -0.00671008      -7.81612253
O        3.47178443      -0.25002590       1.49739251       0.00000000       1.74324677       0.39304232       0.17905525      -0.00652971      -0.00973207      -0.00249055      -7.81897402
O        3.45897998      -0.24232136       7.83129965       0.00000000       0.59453678       0.16153605      -1.05598236       0.00474815       0.00127205      -0.01606065      -7.81400156
O        3.13111206       5.39907938       0.16382105       0.00000000       0.21649313      -0.41479565      -0.74028013      -0.01146356       0.00481170      -0.00247644      -7.81545448
O        3.13383915       5.40144116       6.48418859       0.00000000      -0.32550435       0.18731202       0.34311707      -0.01642561       0.00130302      -0.01143850      -7.81462193
