80
Lattice="5.91569642 0.0 -1.46806091 -0.66675713 11.30069771 -2.68676537 0.0 0.0 12.65297174" Properties=species:S:1:pos:R:3:initial_magmoms:R:1:momenta:R:3:forces:R:3:energies:R:1 energy=-482.40826416015625 stress="-0.0359468087553978 -0.00042746608960442245 0.001104826689697802 -0.00042746608960442245 -0.0326530784368515 -0.0015474256360903382 0.001104826689697802 -0.0015474256360903382 -0.03195182606577873" free_energy=-482.40826416015625 pbc="T T T"
Ga       1.31334694       2.32747852       1.09138397       0.10000000       1.41767817       1.33781143      -0.74852014      -0.00601191      -0.00366778      -0.00136510      -3.21150494
Ga       1.30985711       2.33077693       7.42221361       0.10000000      -1.22808265       0.41111247      -0.50993717      -0.00391577      -0.00736826      -0.01231490      -3.21147418
Ga       0.97224675       7.97647116      -0.26212739       0.10000000       0.81584392      -1.69156833       0.71659515      -0.00194678      -0.00459428       0.01140811      -3.21110988
Ga       0.97284569       7.98636712       6.06534486       0.10000000      -0.06639661      -2.17456490       0.86637385       0.00447015       0.00139638       0.00784585      -3.21077657
Ga       4.27160787       2.32663449       0.35901538       0.10000000      -0.83091643       1.57660234      -1.81240899      -0.00944056      -0.00378454      -0.00292157      -3.21124148
Ga       4.26670241       2.32742742       6.68580539       0.10000000       1.70437448      -2.21605388       1.42127116      -0.00033999       0.02377432      -0.00218224      -3.21170187
Ga       3.92865210       7.97527169      -0.99691207       0.10000000       0.97145137      -0.29993308       0.01705288       0.00083356       0.02090827       0.00850215      -3.21047592
Ga       3.93261763       7.98503310       5.33322873       0.10000000      -2.55322142       0.66296108       0.94330926      -0.00263552      -0.00729416       0.00467505      -3.21090198
Ga       0.24575304       4.44113365       3.11531562       0.10000000      -1.62651053       0.33531425      -2.46061018      -0.01296621       0.01093151      -0.00295498      -3.21058512
Ga       0.23837851       4.45012650       9.43902324       0.10000000      -0.34788074       0.97439545       2.94587621       0.00447471      -0.01495885       0.00232806      -3.21128082
Ga      -0.09474587      10.09192061       1.76661173       0.10000000      -1.34909765      -1.25115842       1.15377634      -0.00398841      -0.00821377      -0.00913821      -3.21097398
Ga      -0.09559902      10.10408644       8.09104232       0.10000000       1.12778408      -1.37371672       0.14555788       0.00970076       0.00509661      -0.01299249      -3.21175122
Ga       3.20361735       4.44274256       2.38174895       0.10000000      -0.60608792       0.34605783      -2.09606991      -0.00575113      -0.00246527      -0.01194158      -3.21125102
Ga       3.19685881       4.45211198       8.70154602       0.10000000      -0.70771121       0.01618451       1.80757328       0.00256522      -0.01387677       0.00733102      -3.21186233
Ga       2.86112867      10.09365273       1.02845393       0.10000000       2.12947832       0.08150726       0.97786416       0.00795105       0.00671934       0.01257693      -3.21087861
Ga       2.86491782      10.10419113       7.35776632       0.10000000       0.35214045      -1.20025891      -2.51744868      -0.01107042      -0.00952218      -0.00948254      -3.21068478
Ga      -0.53157851       5.04541945      -0.01589733       0.10000000       0.21424889      -0.43093378       0.97848754      -0.00354345      -0.00677817       0.01095467      -3.15980983
Ga      -0.53382608       5.05342662       6.31703197       0.10000000      -0.30613119       2.16116622      -0.07895854      -0.00145091      -0.00452373      -0.01127195      -3.15884161
Ga      -0.86988257      10.69998331      -1.36067757       0.10000000      -0.18692147      -0.25393669      -0.91743101       0.00047224       0.00360293       0.00944401      -3.16010451
Ga      -0.86951112      10.70283835       4.96096803       0.10000000       1.35133156       0.43776580      -0.79151427       0.00409330       0.00941104       0.00463519      -3.16153717
Ga       2.42672721       5.03971837      -0.75436163       0.10000000      -1.39567246       1.17936623      -0.33088998      -0.00580747       0.02778816       0.02223460      -3.15982771
Ga       2.42166064       5.05268304       5.57469415       0.10000000      -0.44336252       0.07730526       2.11721788       0.01171072      -0.01203311       0.02117651      -3.15986061
Ga       2.08625396      10.70066748      -2.09664180       0.10000000      -4.80245904       1.62424627       0.48387882       0.00838641      -0.00166946       0.00494623      -3.16020560
Ga       2.09221626      10.70543018       4.23194370       0.10000000      -1.06313442       0.21733626       0.57232865      -0.01759069       0.00695609      -0.00669927      -3.16101027
Ga       2.08179363       1.71937429       4.22212175       0.10000000       0.50840908       1.04265587       0.25368749       0.00722062       0.00473027      -0.02048990      -3.16084433
Ga       2.08806225       1.72901887      10.54599634       0.10000000      -2.68552707       0.92239197      -2.31244980      -0.00372387       0.00243666      -0.01539122      -3.16077423
Ga       1.75279900       7.37504499       2.87148265       0.10000000       1.17552098      -2.28386659       0.42132481      -0.00538032      -0.00151908      -0.00644300      -3.15986848
Ga       1.73922943       7.38419805       9.19060585       0.10000000       0.95966294       0.40196845       1.06667783       0.02359871      -0.02821079       0.01108710      -3.15886164
Ga       5.04181764       1.72085003       3.48986037       0.10000000       1.94242602      -0.27993059      -0.88982228      -0.00408131      -0.00130205      -0.01269361      -3.16065288
Ga       5.04414986       1.73191250       9.80916517       0.10000000       1.04479661      -1.84220050      -1.30687626       0.00034423      -0.01177677       0.00029085      -3.16009307
Ga       4.70897232       7.37142475       2.13319415       0.10000000       2.09473331      -0.82058344       1.83500631      -0.00068812       0.01494918      -0.00227673      -3.15990067
Ga       4.70018388       7.38191110       8.45990108       0.10000000       0.30651957      -0.00799095       1.09655265       0.00407117      -0.00918739      -0.00056908      -3.16010809
O        0.84671309       2.00010062       5.56239011       0.00000000       0.05423593       0.40506106       0.47713351      -0.00326824      -0.00361846      -0.01530516      -7.92709398
O        0.84891060       2.00279389      11.88390739       0.00000000       0.56279869      -0.00102863      -0.60208446       0.00232490      -0.00521167       0.00101179      -7.92402220
O        0.51159232       7.66106088       4.20562529       0.00000000      -0.20582735      -0.26186654       0.53620281       0.00468658      -0.02270996       0.00579190      -7.92970848
O        0.50484649       7.65315275      10.53272484       0.00000000       0.44025929       0.15768899      -0.20697109       0.00726745       0.00505454      -0.00541964      -7.92700672
O        3.80202528       1.99336324       4.82748138       0.00000000      -0.00552095       0.61264005       0.93683683       0.00966214       0.01223742      -0.00466514      -7.92646265
O        3.80871065       1.99844850      11.15198609       0.00000000       0.69335053      -0.22212821      -0.38090137      -0.00462880       0.00264899      -0.00629270      -7.92223835
O        3.47367432       7.65399847       3.47377443       0.00000000      -0.51303860      -0.13335716      -0.24058635      -0.00724705      -0.00114375      -0.00551057      -7.93083858
O        3.46039248       7.65536215       9.79577071       0.00000000      -0.37754518      -0.60563149       0.64928093       0.01832326      -0.00392450       0.01757956      -7.92802048
O        0.70500549       4.76389653      -1.35374243       0.00000000      -0.20263119       0.20224602       0.30437324      -0.00422323       0.02147648      -0.00645947      -7.92548132
O        0.70063118       4.77272029       4.97492610       0.00000000      -0.31703317      -0.78414709       1.04631477       0.01338070       0.00966322       0.00297037      -7.93031502
O        0.36634285      10.42524564      -2.70161368       0.00000000       0.59589496       0.54864535      -0.01028870       0.00183362       0.00094630       0.01075447      -7.92661285
O        0.37216398      10.42870544       3.62589997       0.00000000       1.09522602       1.67780787      -0.24516729      -0.01721669      -0.00809737      -0.01965585      -7.92647362
O        3.66587639       4.75717597      -2.08956849       0.00000000       0.04463421      -0.77250506      -0.23924957      -0.01291939       0.04458505       0.00218406      -7.92511225
O        3.66377841       4.76991521       4.24137380       0.00000000       0.47885651       0.78116597      -0.73933930      -0.00766810       0.01377622      -0.00154233      -7.92902756
O        3.32545734      10.42560143      -3.43429993       0.00000000      -0.00408149      -1.83493161       0.84200899       0.00668716      -0.00461204       0.00054291      -7.92622042
O        3.32491132      10.43064864       2.88766591       0.00000000      -0.63482714       0.18366319       0.42701845       0.00516698      -0.01966046       0.01770663      -7.92701054
O       -0.20869372       3.73516785       1.28333122       0.00000000      -0.64095583       0.91685950      -0.19146559      -0.00538616      -0.01120353      -0.01152998      -8.03707027
O       -0.21671705       3.73369208       7.60655465       0.00000000       0.16034976      -1.17851243      -0.08896030       0.02558468       0.02807012       0.01224276      -8.03611755
O       -0.55156970       9.38183873      -0.06996556       0.00000000       1.10248482      -0.87587152      -0.80276491      -0.00336070       0.00814614       0.01733610      -8.03382301
O       -0.54842682       9.39256858       6.25810280       0.00000000       0.88367525      -0.49171288      -1.08187749      -0.01151329      -0.02353120      -0.01451695      -8.03665161
O        2.74910246       3.73183963       0.54725949       0.00000000      -0.14440065       0.96861904       0.51973903      -0.01310281       0.01803118      -0.00551000      -8.03657818
O        2.74495783       3.73794811       6.87028145       0.00000000      -0.09339407       1.06588302      -1.15087847      -0.02196909       0.00310534       0.01134467      -8.03473282
O        2.40371967       9.38531953      -0.80200416       0.00000000       0.19310778      -0.82870753      -0.43477007       0.02319860      -0.02021307      -0.01253659      -8.03800488
O        2.41120447       9.38976092       5.52310028       0.00000000      -0.85176864      -0.04277252      -0.26881427      -0.00413811       0.00085127       0.01028773      -8.03584385
O        1.76905107       3.03507192       2.92620208       0.00000000       1.16118462      -0.52547298       0.52594026      -0.02150553       0.01995638       0.00362468      -8.03677273
O        1.76555584       3.04299596       9.25093095       0.00000000       0.29885432      -0.32043215      -0.23055212      -0.01262380       0.00628769      -0.00963521      -8.03307819
O        1.42699336       8.68426998       1.57286817       0.00000000      -1.10628177      -0.27260245      -1.57041717       0.01185275       0.01069620       0.00904754      -8.03833771
O        1.42465626       8.69973006       7.89819981       0.00000000      -0.17723561       0.25318312      -1.26371078       0.02254501      -0.03685841       0.01148707      -8.03523922
O        4.72291577       3.03497118       2.19418902       0.00000000       0.43244156       0.40881105      -0.38490494       0.01680989       0.01201239      -0.01537427      -8.03647137
O        4.72215336       3.04630405       8.51632263       0.00000000      -0.37496567      -0.13790813      -0.68477427       0.00112978      -0.02645594      -0.01691449      -8.03356934
O        4.38437271       8.68641051       0.83990884       0.00000000       0.03179162       0.43396884      -0.28271490      -0.00108627      -0.00408950      -0.01084459      -8.03762054
O        4.38555751       8.69582829       7.16470867       0.00000000       0.04091806       0.17875775       0.13364750      -0.00979272       0.00154251       0.01802087      -8.03656673
O        1.63426456       5.60391195       2.38557237       0.00000000       0.54568444       0.29228813       0.16880049      -0.00723857      -0.00426552      -0.00923091      -7.81773233
O        1.62606550       5.61042243       8.70996458       0.00000000       0.74110537      -0.42026792      -0.32021079       0.00534561      -0.01249328      -0.02780870      -7.82104778
O        1.29081120      11.25333566       1.03377986       0.00000000      -0.45981548       0.41094297      -0.62990044       0.01074612       0.00308573      -0.00242402      -7.81416607
O        1.29634049      11.26176687       7.36430721       0.00000000       0.34206109      -0.22732599       1.02170009      -0.00563692       0.00566760      -0.01301484      -7.81221104
O        4.59078659       5.60167053       1.64593872       0.00000000       0.46293700       1.20120731      -0.33267949      -0.00696541       0.00746217      -0.00355045      -7.81748009
O        4.58511510       5.61132320       7.97155612       0.00000000      -0.11321748      -0.38552407      -0.03669618      -0.00510836      -0.00961605      -0.01113713      -7.81941175
O        4.25362533      11.25378940       0.30243680       0.00000000      -0.20972183       0.31999257       0.58630245      -0.01063005       0.00467905      -0.00502320      -7.81399488
O        4.25237805      11.26363093       6.62682419       0.00000000       0.34453436       0.15173158      -0.32768220       0.00344648      -0.00446486      -0.00015225      -7.81460905
O       -0.07619514       1.16781853       1.81982073       0.00000000       0.09326273      -0.35561586      -0.03098148      -0.00215127      -0.00583702       0.01483707      -7.81502581
O       -0.07964473       1.16852382       8.15083163       0.00000000       0.49629906       0.97050982       0.21224076       0.00492921       0.01005450      -0.00169499      -7.81260347
O       -0.41791032       6.81690683       0.46553745       0.00000000      -1.14688947       0.26018213      -0.19315001       0.00810134      -0.00202700       0.02600153      -7.81942272
O       -0.41227296       6.82478673       6.80373533       0.00000000      -0.60672039       0.72987513       0.23975054      -0.00419623      -0.01108208      -0.00758809      -7.81754160
O        2.88044018       1.16704078       1.08555791       0.00000000      -0.13583829       0.64558708       0.50134108       0.00015401      -0.00534165       0.01373425      -7.81344557
O        2.88037158       1.17082265       7.42395818       0.00000000      -1.02684469      -0.67959318       0.76411344      -0.00665992      -0.00397572      -0.02322218      -7.81498814
O        2.54048061       6.81316713      -0.27350825       0.00000000      -0.27909295      -0.48360437       0.05416213       0.00432302       0.02024511       0.04105471      -7.81862164
O        2.54079434       6.82422701       6.06068796       0.00000000       0.41441592       0.38474956      -0.02188975       0.01317678      -0.00580493       0.02068985      -7.81703329
