80
Lattice="5.91569642 0.0 -1.46806091 -0.66675713 11.30069771 -2.68676537 0.0 0.0 12.65297174" Properties=species:S:1:pos:R:3:initial_magmoms:R:1:momenta:R:3:forces:R:3:energies:R:1 energy=-482.40765380859375 stress="-0.035362280905246735 -0.00034766687895171344 0.0010812559630721807 -0.00034766687895171344 -0.032978761941194534 -0.0014560507843270898 0.0010812559630721807 -0.0014560507843270898 -0.031029636040329933" free_energy=-482.40765380859375 pbc="T T T"
Ga       0.99951060       1.71776738       1.81377673       0.10000000       0.04415487       0.84783545      -0.60880756       0.01386990       0.01536279       0.01826761      -3.21041656
Ga       0.99967782       1.72338759       8.14022217       0.10000000       1.10576847       0.40240530      -0.77777528       0.00434248      -0.00983828       0.01240688      -3.21086001
Ga       0.67426257       7.36839500       0.48839744       0.10000000      -1.67211404       1.18108936       0.67643055       0.00121886       0.01337081       0.00100476      -3.21129870
Ga       0.66986528       7.37045338       6.81650541       0.10000000       1.29304966      -1.76861844       0.65839176       0.00304711       0.00130174      -0.01595303      -3.21020222
Ga       3.95692159       1.72198792       1.07888498       0.10000000       1.39255528      -0.17437555      -0.80642464       0.00853053      -0.02393337       0.01338747      -3.21069884
Ga       3.95942052       1.72272266       7.40928470       0.10000000      -0.92914037       0.17690146       0.63338772      -0.01087433      -0.00647208      -0.00078516      -3.20972085
Ga       3.63303271       7.36936289      -0.24472421       0.10000000      -0.08106240      -1.27362098      -2.03759252      -0.00863646       0.00528776      -0.00187709      -3.20989394
Ga       3.62747859       7.37090107       6.07993449       0.10000000      -0.37603448       0.69664374       0.36951893       0.01420378       0.00029390       0.00826854      -3.21062279
Ga      -0.06169941       3.83470579       3.83962580       0.10000000      -0.46721573       2.87372452       1.15715413       0.01070873      -0.00209472       0.01026955      -3.21091723
Ga      -0.06481253       3.83854860      10.16513458       0.10000000       0.24895427      -0.38443670      -1.61430322      -0.00811443      -0.00577781       0.01685545      -3.21021819
Ga      -0.39778761       9.48403109       2.51864010       0.10000000       0.01119578      -0.64297206      -0.01085169       0.00348947       0.01425741      -0.02371093      -3.21053410
Ga      -0.39776248       9.48359694       8.84376240       0.10000000       1.47431559       0.21018274       0.18028801      -0.00446459       0.01712575      -0.01666550      -3.21059990
Ga       2.89639303       3.83465814       3.10490989       0.10000000      -1.17889620      -0.14894299      -0.07604703      -0.02347754       0.00090666       0.01693361      -3.21101832
Ga       2.89310787       3.83582533       9.43204659       0.10000000      -0.03513208      -0.07604355      -0.83817896       0.00998322       0.00827402       0.00333667      -3.21131587
Ga       2.56099020       9.48369433       1.78358267       0.10000000       0.86722295      -2.15628358      -0.01029245      -0.00396458       0.01015893      -0.01704611      -3.21135855
Ga       2.56003000       9.48428341       8.10575751       0.10000000       1.17495413       1.11991455      -0.27198303       0.00492700       0.00976913       0.00375958      -3.21105433
Ga      -0.83832653       4.44476258       0.71611355       0.10000000       1.51077667      -1.08582376      -1.98179068       0.00165334      -0.01010067      -0.01010701      -3.16061544
Ga      -0.84412862       4.44499018       7.04045040       0.10000000      -0.40612845      -1.55479407       1.92692093       0.00445330      -0.02051540      -0.01519585      -3.16119838
Ga      -1.17133989      10.08949583      -0.61181277       0.10000000       0.29664556       2.53823650       1.06856553       0.00060886       0.00050535      -0.01606227      -3.15938687
Ga      -1.17496438      10.09475044       5.72099280       0.10000000       1.04862225       2.21128666       1.77634790      -0.00523568      -0.02112009      -0.03576770      -3.15949297
Ga       2.11908275       4.44484897      -0.02157388       0.10000000      -0.42981764       0.89937618       1.21742467      -0.00308664      -0.02220169      -0.00315001      -3.16046548
Ga       2.11478321       4.44864474       6.31010356       0.10000000      -0.83953739      -1.41303912      -1.37009740       0.00059127      -0.03763676      -0.02934453      -3.16157651
Ga       1.78759706      10.08897504      -1.34655808       0.10000000      -0.79358173       0.55317665       2.12786938      -0.00844615       0.01429543      -0.01947120      -3.15947199
Ga       1.78158047      10.09149830       4.97990138       0.10000000       2.43970113      -2.26654871      -0.02181826      -0.00842616       0.00130035      -0.02493345      -3.15941882
Ga       1.77690483       1.11662971       4.94547700       0.10000000       0.94672641       1.84640116      -0.06368376      -0.02065811      -0.01640935       0.01313292      -3.15949869
Ga       1.77393757       1.11446160      11.26756565       0.10000000      -1.17144447       1.04710990      -0.43240952      -0.00229051      -0.01480236       0.00497830      -3.15974689
Ga       1.45713872       6.75936986       3.61209511       0.10000000       0.34050034       0.78475184      -1.28435418      -0.00883476       0.01293601       0.00096009      -3.16167450
Ga       1.44811418       6.76197150       9.94090286       0.10000000      -1.45743641      -0.49857889      -1.40296003      -0.00044316       0.01320235       0.00069556      -3.15986538
Ga       4.73109926       1.11481932       4.20730773       0.10000000       0.42354022       1.92212921      -0.63644721       0.02300649      -0.01790231       0.00623124      -3.15996790
Ga       4.73203877       1.11460890      10.53547633       0.10000000       1.09284288       0.49600274      -0.95645686       0.00426951       0.00452225      -0.00898361      -3.15942931
Ga       4.41599640       6.76027622       2.87900044       0.10000000      -0.52029606      -1.77793529       2.56639011      -0.02197024       0.02613101       0.00251250      -3.15987253
Ga       4.40515399       6.76187245       9.20758873       0.10000000      -0.10659616       1.14648302       0.61122857      -0.00525393      -0.00571933      -0.03240632      -3.16119885
O        0.53521800       1.39486338       6.28186584       0.00000000       0.09794111      -0.04412474      -0.73122971       0.01263820      -0.00589560       0.01135960      -7.93040037
O        0.53632864       1.39627813      12.60577022       0.00000000       0.61905370       0.80437164       0.40949424       0.01375265       0.00314826       0.01937059      -7.92987823
O        0.21956206       7.03575842       4.95257459       0.00000000      -0.26095558      -0.07801720       1.14529132      -0.01407778       0.01458132       0.00356898      -7.92599154
O        0.20924454       7.04348078      11.27826898       0.00000000       0.75842254      -1.15597390      -0.84351174       0.01049604      -0.00294957       0.02378368      -7.92706823
O        3.49713715       1.39392035       5.54906945       0.00000000       0.16235539       0.27266542       0.58704474       0.01221427       0.00035506       0.01972693      -7.92904329
O        3.49390698       1.39245901      11.87305991       0.00000000       0.00397343      -1.13723885       0.52383918       0.00618061       0.00984374       0.01841688      -7.93089628
O        3.17656504       7.03737269       4.21802439       0.00000000       0.21186608       0.28037490       0.07269736      -0.01535013       0.00204430      -0.00288698      -7.92758226
O        3.16859572       7.03676304      10.54737083       0.00000000      -0.81281665      -0.52327002       0.61029714       0.00216405       0.01427584       0.00899699      -7.92703342
O        0.39680218       4.17814529      -0.62787553       0.00000000       0.16555997       0.82272360      -0.98799579       0.01398984      -0.02373673       0.00990340      -7.92800188
O        0.39551730       4.17221590       5.70050236       0.00000000       0.99678048       0.15844176       1.20734306      -0.00265063      -0.01098065       0.02133250      -7.92516232
O        0.06588005       9.82084707      -1.95341879       0.00000000      -0.11253150       0.01714022      -0.88772688      -0.00241525      -0.01533276      -0.00094321      -7.92974520
O        0.05966593       9.81580395       4.37776930       0.00000000      -0.94984017      -0.88441613      -0.12963041       0.00602217      -0.00149272      -0.00202146      -7.93052006
O        3.35754888       4.17606053      -1.36287564       0.00000000       0.90441481       0.25285675      -0.26969157      -0.00850669      -0.02453690       0.03166866      -7.92794991
O        3.35069173       4.16903233       4.96789082       0.00000000       0.21334162      -0.00253249       1.15224311       0.01565707      -0.00160734       0.01035604      -7.92553282
O        3.02465731       9.81430989      -2.68745357       0.00000000       1.11671143      -0.44574388      -1.15153609      -0.01299309      -0.00556922       0.00175235      -7.92823219
O        3.02180920       9.81601443       3.64265714       0.00000000       0.80687184       0.31326913       0.06094835       0.01053423      -0.00089076      -0.00536293      -7.92879820
O       -0.51880040       3.12427670       2.00366792       0.00000000       0.44210882      -0.37570633      -1.16812764      -0.00182317       0.00766131       0.01261300      -8.03826046
O       -0.52122832       3.12717868       8.33124994       0.00000000       0.40600092      -1.63680159       0.81906931      -0.00226772      -0.00477707       0.01286954      -8.03944874
O       -0.84647221       8.77433335       0.67981250       0.00000000      -0.74488852       1.39917641       0.61754913      -0.02237165      -0.01070216       0.00023291      -8.03774834
O       -0.85372061       8.77413632       7.00810484       0.00000000      -0.84906493      -0.41153344       0.30659427       0.00808261       0.00161198      -0.01422507      -8.03750706
O        2.44005346       3.12540312       1.26835982       0.00000000      -0.36941966      -0.89846202      -0.65617374      -0.01712255       0.00476903       0.01401576      -8.03787327
O        2.43445395       3.12837380       7.59743795       0.00000000       0.33043623      -0.68045966      -0.56094693       0.01343427      -0.02185288       0.01891536      -8.03585434
O        2.10708196       8.77339644      -0.05496892       0.00000000      -0.28552400       0.23485565       0.24213265       0.00867820      -0.00247666       0.00282356      -8.03548145
O        2.10368483       8.77490624       6.27006546       0.00000000      -0.37089976       0.59110625       0.18339188       0.00651161      -0.01299617       0.01219857      -8.03710556
O        1.45892941       2.43078669       3.65094453       0.00000000       0.43160586       0.10040262      -0.02974204      -0.00750373      -0.00133494      -0.02212790      -8.03617191
O        1.45681524       2.43153226       9.97603591       0.00000000      -0.60493444      -0.38837633      -0.49302371       0.00077156       0.02156097       0.00634450      -8.03557587
O        1.13261598       8.07899568       2.32485721       0.00000000      -0.16897644      -0.30229211       0.13419048      -0.02524362       0.01088795      -0.01432055      -8.03487492
O        1.12443153       8.08138039       8.65216463       0.00000000      -1.16572742      -0.39491334      -0.19490011       0.00951619      -0.01382443      -0.01771402      -8.03830147
O        4.41662020       2.43021405       2.91373238       0.00000000      -0.88298590      -1.15280918      -0.21445813      -0.01210710       0.01250264       0.01267844      -8.03817368
O        4.41357663       2.43339381       9.24343931       0.00000000      -1.67252512      -0.96177036      -0.65554270       0.00206368      -0.00321588       0.00494263      -8.03868294
O        4.08763347       8.08104830       1.59115677       0.00000000       0.48804240       0.04287925      -0.67022252      -0.00088816      -0.01581404      -0.01371607      -8.04074287
O        4.08224388       8.08114074       7.91719112       0.00000000       0.04047794      -1.01158725       1.85355545       0.00251534      -0.00688604      -0.00948617      -8.03768730
O        1.32704020       4.99475785       3.10737183       0.00000000      -0.61174631      -0.38336717       0.26132425       0.00173454      -0.00397789       0.00337845      -7.81118631
O        1.32509434       4.99694999       9.43633811       0.00000000      -0.75601217       0.43213265      -0.26996538      -0.00961455       0.00485122       0.00052136      -7.81279087
O        0.98930777      10.64295487       1.78262957       0.00000000      -0.28867019      -0.49844305      -0.75809016       0.00339281       0.01107997      -0.01530086      -7.81535769
O        0.98931049      10.64176424       8.10146156       0.00000000       0.20074302      -0.72837458       0.77294525      -0.00926549       0.02196950      -0.00100210      -7.81427240
O        4.28585185       4.99494610       2.37726844       0.00000000      -1.22838820      -0.33999373      -0.78625749      -0.00567936       0.00028399      -0.00850928      -7.81338120
O        4.28044897       4.99712443       8.69633607       0.00000000       0.80025628       0.60704080       0.59643949       0.00515680       0.01650929       0.02443367      -7.80967331
O        3.94374715      10.64318078       1.03807333       0.00000000      -1.30951936      -0.23418900      -0.59242443       0.01721206       0.00080281       0.00966446      -7.81464863
O        3.94531890      10.64381621       7.36581410       0.00000000      -1.97716413       1.87642387      -0.32670520       0.01285065      -0.00229862      -0.00152247      -7.81399441
O       -0.38758725       0.56189639       2.55225458       0.00000000      -1.06269004      -0.26128353       0.46982421      -0.00331737       0.00856668       0.01105948      -7.81619215
O       -0.38413147       0.56474649       8.88970409       0.00000000       0.31034427       0.59776819       0.71685774      -0.00762898       0.00972757      -0.02062900      -7.81607914
O       -0.71227198       6.20934776       1.22517336       0.00000000      -0.28854631      -0.06037505      -1.09735292      -0.01248560       0.01057863      -0.02443351      -7.81446266
O       -0.71862823       6.20968856       7.54527823       0.00000000      -0.05703884       0.65122774       0.50543445       0.00849618       0.01470461      -0.00252675      -7.81165409
O        2.56991856       0.56197092       1.82008242       0.00000000       0.68207822      -0.70659204      -0.00241957       0.01816254      -0.00203753      -0.00332162      -7.81672096
O        2.57007496       0.56341243       8.14401432       0.00000000       0.31214734       0.24514491       0.40227055       0.00183039       0.01843920       0.01204178      -7.81569576
O        2.24400909       6.20943554       0.48554663       0.00000000       0.41223934       0.36926524       0.19011917       0.00085508       0.00676414      -0.00708762      -7.81358051
O        2.24061156       6.21206538       6.81568062       0.00000000       0.67000174      -0.10225830      -0.13086400       0.00367162       0.01318991      -0.01337253      -7.81310987
