80
Lattice="5.91569642 0.0 -1.46806091 -0.66675713 11.30069771 -2.68676537 0.0 0.0 12.65297174" Properties=species:S:1:pos:R:3:initial_magmoms:R:1:momenta:R:3:forces:R:3:energies:R:1 energy=-482.402099609375 stress="-0.03558892011642456 -0.00045558399870060384 0.0011343869846314192 -0.00045558399870060384 -0.03268004208803177 -0.0014768028631806374 0.0011343869846314192 -0.0014768028631806374 -0.03156086429953575" free_energy=-482.402099609375 pbc="T T T"
Ga       1.09423917       1.71645060       1.36970450       0.10000000       2.12201921      -3.81141225      -1.62833085       0.00506010       0.01093776      -0.01837748      -3.21118927
Ga       1.10123624       1.73890832       7.67999638       0.10000000       0.43286853      -2.02575352      -0.29552050      -0.00158084      -0.01295574       0.00763681      -3.21114469
Ga       0.75931196       7.36357311       0.01382463       0.10000000      -0.07388372       0.11808851       0.23975923       0.00413701       0.00719848      -0.00844419      -3.21010208
Ga       0.75412807       7.39683143       6.34159298       0.10000000       0.35519843      -1.11796929       0.24399426       0.00050012      -0.01689721       0.00399348      -3.21146369
Ga       4.05205418       1.71610918       0.63634356       0.10000000      -0.39878475      -0.13358470      -1.01117123      -0.00590786       0.01325625      -0.02309963      -3.21128941
Ga       4.05939109       1.73776284       6.94719385       0.10000000      -0.88738405      -0.64357295       0.83925364      -0.01140953      -0.00406322       0.00962202      -3.21040797
Ga       3.71739592       7.36063553      -0.72075302       0.10000000      -1.50549118       0.45591403       0.38511315      -0.00187752       0.02238050       0.00147884      -3.21037364
Ga       3.71235221       7.39419291       5.61025265       0.10000000       1.54561521      -0.41484869      -0.44184259       0.01095583      -0.00163343      -0.00811438      -3.21127462
Ga       0.03308491       3.83405322       3.39104401       0.10000000       3.49839539       0.90803278       0.00184786      -0.00209600       0.01562588      -0.01674631      -3.20962572
Ga       0.04109418       3.85553448       9.70175843       0.10000000       1.33169959       2.13305064       1.51029379      -0.01855188      -0.00593176       0.00188544      -3.21161604
Ga      -0.31571477       9.47670479       2.04226098       0.10000000      -0.14412776      -0.61790758       0.20557295       0.00671876       0.03137215      -0.00044207      -3.21075726
Ga      -0.31902777       9.51316186       8.36903406       0.10000000      -0.37737519       1.34214802       1.09685906       0.01257265      -0.01732780      -0.01677662      -3.21099162
Ga       2.98959675       3.83403981       2.65532778       0.10000000      -3.52834550       0.14811294      -0.90807996      -0.00760856       0.01563050      -0.00136898      -3.21080995
Ga       2.99979872       3.85485198       8.96926407       0.10000000       0.45731082       0.63939275      -1.34459999      -0.01999876      -0.00440329       0.00455015      -3.21146083
Ga       2.64249171       9.47929217       1.30651260       0.10000000      -0.90187837       1.85658487       0.94015011       0.01993039       0.02160610       0.00481210      -3.21087408
Ga       2.63903845       9.51368174       7.63323417       0.10000000       0.42378563      -0.01816335      -1.30405707       0.00716417      -0.01697252      -0.01276628      -3.21150088
Ga      -0.72562785       4.43321679       0.25520454       0.10000000      -1.16682452       0.14892666      -0.30117807      -0.02724560       0.00776938      -0.01425494      -3.15872359
Ga      -0.74205115       4.46375739       6.58067257       0.10000000       1.55179535       0.23395943      -1.36635776      -0.00040243       0.00492186       0.02004456      -3.16107488
Ga      -1.09695003      10.09133981      -1.07761634       0.10000000      -1.36203936       0.58025374      -0.38249237       0.01587692       0.01006970      -0.01393493      -3.15943027
Ga      -1.09069222      10.11037100       5.23684201       0.10000000      -1.98865546      -0.16429337       2.51852621       0.00937837      -0.02060328      -0.00165977      -3.16094279
Ga       2.23067932       4.43334352      -0.48142138       0.10000000      -3.12376934      -0.65791758       0.87525717      -0.02577348       0.00550497      -0.00334570      -3.15887332
Ga       2.21762183       4.46497287       5.85072573       0.10000000       0.41364261       0.90146778      -0.77781452      -0.00469777      -0.00653632       0.00405890      -3.16003799
Ga       1.86130922      10.09009893      -1.81286165       0.10000000      -1.59224322       1.30798657       0.77784157      -0.00001026       0.01761844      -0.01389520      -3.15952778
Ga       1.86735463      10.10915083       4.49774501       0.10000000       1.43419001      -0.75758734       0.80395795       0.00272018      -0.01287000       0.02402453      -3.16200972
Ga       1.87626803       1.10808989       4.48750383       0.10000000      -0.54230477       0.88459648       2.44452199      -0.00184369       0.01592163       0.00571874      -3.16038680
Ga       1.86917653       1.13858065      10.81516085       0.10000000      -1.64325280       1.94296318      -0.06442445       0.00078406      -0.01894722      -0.00832956      -3.16022277
Ga       1.52954705       6.76365062       3.14785652       0.10000000      -1.70471920       1.45635199      -0.81210336       0.00520455       0.00679628       0.02187457      -3.16095495
Ga       1.52955755       6.78590327       9.46299372       0.10000000       2.18474766       2.00895911      -0.30661911       0.01546143      -0.01572036      -0.01918967      -3.15922093
Ga       4.83480883       1.10980296       3.75422988       0.10000000      -3.22725405      -2.69275597       0.19880306      -0.01037225       0.00483946       0.00479200      -3.16055036
Ga       4.82756482       1.13904881      10.08321259       0.10000000       3.08125838      -2.53630960      -0.31208349      -0.00136186      -0.02304764      -0.01460196      -3.16023684
Ga       4.48644999       6.76317313       2.41390157       0.10000000      -2.78511146       0.40977138      -0.50877234       0.01529234       0.01703888       0.02135898      -3.16071248
Ga       4.48769631       6.78415675       8.72968622       0.10000000      -0.28301236       0.65108157      -0.84243399       0.00475392      -0.00747820      -0.01620866      -3.15952730
O        0.63765996       1.40666210       5.82085662       0.00000000       0.13757073      -0.76959534      -0.46604907      -0.00430709      -0.01736456       0.01096669      -7.92811346
O        0.63370489       1.40115397      12.15931197       0.00000000      -0.03441038       0.96054782      -0.30618109      -0.01222893       0.00093586       0.00348505      -7.92637920
O        0.29066266       7.05570024       4.48379669       0.00000000       0.08793035       0.59588918       0.50942068       0.00938137      -0.00937532      -0.01171941      -7.92744637
O        0.29274807       7.05255136      10.80348779       0.00000000       0.82686838       0.11588985      -0.11808411       0.02184052      -0.00148229       0.02820149      -7.92770910
O        3.59601454       1.38533642       5.09217772       0.00000000       0.21306235      -0.38728665       0.29615104      -0.00462145       0.02243333      -0.00720930      -7.92759848
O        3.58998927       1.40703176      11.42417113       0.00000000       0.38967039      -1.12869317      -0.69740276       0.00158894      -0.00989259       0.00662315      -7.92566872
O        3.24974385       7.04124743       3.75448345       0.00000000      -0.03537582       0.81450766      -0.95254869       0.00827992       0.00932322      -0.02244192      -7.92730951
O        3.25061461       7.05270134      10.07012877       0.00000000       0.68735599      -0.42250749       0.19454779       0.02215569       0.00479578       0.01310405      -7.92875814
O        0.50826459       4.16336358      -1.08922351       0.00000000       0.38348356       0.38826292       0.13882068      -0.01252040       0.02020254       0.02227175      -7.92742014
O        0.49810463       4.18709804       5.24483067       0.00000000      -0.99806901      -0.77283126       0.44036980      -0.01799589      -0.02099974      -0.00754949      -7.92873478
O        0.13994191       9.82729460      -2.42113986       0.00000000      -0.14231720       0.02033553      -0.06300259       0.02006882      -0.00089958       0.00864363      -7.92771196
O        0.14633100       9.82602542       3.89870606       0.00000000       0.42944188       0.11208172      -0.76116045       0.00981491      -0.00442522      -0.01287401      -7.92831564
O        3.46808498       4.16928697      -1.82349859       0.00000000       0.52135792      -0.04025653      -0.91110079      -0.02712140       0.00627426       0.01901168      -7.92729378
O        3.45418681       4.16883803       4.51473437       0.00000000      -0.01711628       1.39053228       0.74410302      -0.01334750       0.01064126      -0.01443794      -7.92799568
O        3.09854777       9.83277471      -3.15673470       0.00000000       0.61672772       0.01136188      -0.39838726       0.00872923      -0.01574614       0.00529259      -7.92769718
O        3.10767077       9.81142604       3.16601648       0.00000000       0.80232652       0.65994305       0.02465206      -0.00846207       0.01538252      -0.01191390      -7.92682695
O       -0.41996597       3.12290110       1.55543732       0.00000000      -0.51561547       0.24440592       0.20905986      -0.00374174       0.01237378      -0.00423518      -8.03352451
O       -0.41841978       3.14422695       7.87036893       0.00000000       1.03194081      -1.22277335       0.07969582      -0.00542144      -0.01718098       0.00671649      -8.03712940
O       -0.77187511       8.77048470       0.20783666       0.00000000       0.66948031      -0.65921181       0.42966321       0.01268058       0.00163150       0.00056121      -8.03478622
O       -0.77339703       8.79864893       6.53441964       0.00000000      -0.29075941       0.85295183       0.52670757       0.01693136      -0.00934398      -0.00164434      -8.03853893
O        2.53802181       3.12231198       0.81942111       0.00000000      -0.69062089      -1.79177451      -1.07248046      -0.00954182       0.02460924      -0.00109935      -8.03332043
O        2.54003496       3.14369654       7.13833842       0.00000000       1.37543087       0.61135172       0.60693853      -0.00697581      -0.01048440      -0.00188836      -8.03792191
O        2.18649691       8.77030651      -0.52642871       0.00000000       0.88341442      -0.32952938      -0.27891027       0.01008588       0.00857940      -0.00295475      -8.03526402
O        2.18489433       8.79974757       5.79858224       0.00000000      -0.63095994       0.36783673       1.28685801       0.01250511      -0.01378715      -0.00419810      -8.03675747
O        1.55698173       2.42973137       3.19934070       0.00000000       0.35762804      -0.44899859      -1.36883984      -0.01172222       0.01536337      -0.00823811      -8.03971577
O        1.56041236       2.44765785       9.51327931       0.00000000      -0.39089221       0.47330459       0.09475329      -0.00846502      -0.00609010       0.02145022      -8.03440285
O        1.20832707       8.07458182       1.85097624       0.00000000       1.12513219      -0.94661770      -0.22402797       0.00441630       0.01409525      -0.01215819      -8.04005051
O        1.20797884       8.10748989       8.17561764       0.00000000       1.29756412      -0.29698173       0.26153600      -0.00630166      -0.02970475       0.02163121      -8.03355312
O        4.51354623       2.43076447       2.46592319       0.00000000       0.80118260      -0.66580628      -1.05357660      -0.00379019       0.00376120      -0.00456336      -8.03901482
O        4.51912375       2.44746242       8.78052960       0.00000000       0.47283379      -0.43138752      -0.10441985      -0.01465318      -0.00422326       0.00945750      -8.03478241
O        4.16480196       8.07288614       1.11565000       0.00000000       0.52134586      -0.04038067       0.26097883       0.01141532       0.01831177      -0.00468662      -8.03995037
O        4.16372250       8.10583726       7.44268027       0.00000000       0.16219012       0.80776073       0.23835422       0.01034682      -0.01809138       0.01578793      -8.03397465
O        1.41851121       4.99538844       2.65197815       0.00000000      -0.68992659       0.57241139      -0.03368933      -0.00881393      -0.01210955       0.00634092      -7.81300640
O        1.42834737       5.01444885       8.97062913       0.00000000      -0.97357785       0.54929106       0.40647910      -0.02023024      -0.00549996       0.00598833      -7.81677771
O        1.07340856      10.64004999       1.31048442       0.00000000       0.12014912      -1.41193391      -0.12776984       0.01529007       0.01034948      -0.00315192      -7.81295729
O        1.07006339      10.67119045       7.63506412       0.00000000       0.06077194       0.23469746      -0.03940187       0.00642240      -0.01152930       0.00074963      -7.81508017
O        4.37700648       4.99388090       1.92269164       0.00000000      -0.68423921       0.04989049       0.23386723      -0.00493874       0.00382984      -0.01219147      -7.81417513
O        4.38451247       5.01410687       8.23311124       0.00000000       0.75270104      -0.98222083      -0.59236439      -0.01239996      -0.00356755       0.01457258      -7.81739187
O        4.03308852      10.64157391       0.57660796       0.00000000      -1.40232124      -0.64818589       0.07940598       0.00948917      -0.00144324      -0.00891797      -7.81200457
O        4.02834860      10.67155896       6.90146638       0.00000000       1.21924634       0.85503411       0.61136956       0.00912400      -0.00967267      -0.00119518      -7.81623936
O       -0.29573165       0.55875760       2.10594748       0.00000000       0.26017189      -0.10774683      -0.42313812       0.00102879       0.00139883      -0.01407209      -7.81793594
O       -0.28975531       0.57766432       8.41096433       0.00000000      -0.08132492      -0.89850844       0.41363094      -0.00141402       0.00207630       0.00979723      -7.81341505
O       -0.62497033       6.20434115       0.74328097       0.00000000       0.09655764       1.27319795       0.45706788       0.00056656       0.02022022       0.01367328      -7.81987429
O       -0.62962174       6.23353472       7.07829459       0.00000000      -0.12726882       0.13650736      -0.08835113      -0.00187628      -0.02135780      -0.00660187      -7.81132603
O        2.66148961       0.55771828       1.37050756       0.00000000      -0.19222272       0.24611435       0.68330170       0.00598804       0.00442931      -0.00647064      -7.81681252
O        2.66737798       0.57626125       7.67582529       0.00000000      -0.23933055       0.04353806      -0.23540770      -0.00363781       0.00545025       0.00774907      -7.81192780
O        2.33155834       6.20421798       0.00935381       0.00000000       0.04574991       0.00632287       0.21244523      -0.00082934       0.01367715       0.01017128      -7.81901407
O        2.32700503       6.23548414       6.34431316       0.00000000       0.19098914      -0.52630877       0.40224449       0.00143537      -0.03897613      -0.00012578      -7.81310368
