80
Lattice="5.91569642 0.0 -1.46806091 -0.66675713 11.30069771 -2.68676537 0.0 0.0 12.65297174" Properties=species:S:1:pos:R:3:initial_magmoms:R:1:momenta:R:3:forces:R:3:energies:R:1 energy=-469.33990478515625 stress="-0.04432135075330734 0.014432382769882679 -0.0065937708131968975 0.014432382769882679 -0.054468896239995956 0.004382329061627388 -0.0065937708131968975 0.004382329061627388 -0.03931186720728874" free_energy=-469.33990478515625 pbc="T T T"
Ga       3.94623411       1.90053443      -0.20034513       0.10000000      -0.61975972      -1.03415065       1.06677359      -0.04284660      -0.00232259      -0.00319743      -2.99059749
Ga       1.78068222       3.88013473       4.76720223       0.10000000      -1.84512760      -1.84988409       0.71060752       0.01083803      -0.00095329       0.00782747      -3.06126189
Ga       1.15749752       5.33438361      -1.21900996       0.10000000      -0.21658925       0.16320195       2.46266063      -0.00167268       0.01041572      -0.00361432      -3.11416960
Ga       1.95080335       9.86606037       5.02943106       0.10000000      -0.08326073       0.40545883      -1.73610353       0.00723730      -0.00281239      -0.00025173      -3.03447652
Ga       7.01853524       3.24659592      -0.71405241       0.10000000      -1.78672549       2.11444402       0.02776986      -0.00449973       0.00406265      -0.00991657      -3.12884235
Ga       5.10460663       4.12663419       4.96315534       0.10000000      -1.62742042      -1.70715034       0.52575778       0.00031036      -0.00384572       0.00477482      -3.08502865
Ga       3.85368344       6.45686739      -2.38515009       0.10000000       0.96863554      -0.89611467       0.04273610      -0.00925151       0.00658512      -0.01472931      -3.11917543
Ga       4.27938306      10.85562902       6.59502076       0.10000000       0.28743036       0.78200311      -0.60110197      -0.03710734      -0.00719447       0.01417285      -3.15532398
Ga       1.00633133       5.86829342       2.39356103       0.10000000       1.79118129       0.18526517      -0.67239074       0.00129493       0.01693162       0.02494726      -3.08241129
Ga       2.06966114       3.29144278       9.76143043       0.10000000       0.57984408      -0.25599612       2.62625055      -0.00076378      -0.00726612      -0.00752839      -3.06463099
Ga      -3.05286317       7.91262381       1.44573432       0.10000000       0.05108553       1.67182525      -0.78118530      -0.00781328      -0.00903437       0.00618139      -3.04566598
Ga       1.49022434      11.83583725       7.48822894       0.10000000      -0.53573244      -1.15238993       2.00875894      -0.01285903      -0.00428951      -0.04134217      -3.02873635
Ga       3.35481663       2.48745558       2.64424669       0.10000000      -1.44556100      -2.30423160       0.51254789       0.00683252       0.00233073      -0.00919076      -3.01692295
Ga       7.47264807       5.77143552       6.35304387       0.10000000       0.32323563       2.56871550      -0.17039334       0.00857624       0.01215813       0.00093262      -3.13222647
Ga       1.91190719       8.54828272       2.55568288       0.10000000       0.90221761       1.04050013       0.92459297      -0.00270709      -0.01656179      -0.00056385      -3.19055343
Ga       6.54893023       8.13020674       8.55290142       0.10000000       0.24144314       0.79616987       0.98529967       0.01071628      -0.01658219       0.00585249      -3.02680755
Ga       4.04520469       4.81795064       0.00184829       0.10000000       2.63297421       0.54720956       2.87955349      -0.00136308       0.00359669      -0.00237111      -2.97263598
Ga      -0.15729807       7.93881752       6.81986235       0.10000000      -1.72818024       1.27523778      -1.04376402       0.01078122       0.01338422      -0.00091872      -3.10486245
Ga      -0.21667827       9.14859735      -0.09529938       0.10000000       1.31769176      -0.30524357      -0.73779237       0.01543608      -0.01086389       0.01003441      -2.95765376
Ga       0.07481699      13.14120247       4.34345745       0.10000000      -1.71571261      -1.67909642       0.92311738       0.00739883      -0.01136393      -0.00739874      -3.12153745
Ga       4.92692962       3.01845894      -2.79212714       0.10000000       0.72696988      -1.15667817      -0.49600980      -0.02632829      -0.00287211      -0.01564348      -3.02168703
Ga       3.03257957       6.67917937       4.99889198       0.10000000       0.37991168       3.57315057       0.37924411       0.00542742      -0.00251836       0.01008207      -3.13962936
Ga       3.08392814      10.18376830      -2.63661584       0.10000000      -2.44078917      -1.76094638      -1.36141454       0.01694693       0.01984634      -0.00907092      -3.13498306
Ga       1.49852553      11.61657094       2.27541900       0.10000000       2.40269056       0.36506700      -2.04947786       0.00531979      -0.02257377      -0.00156305      -3.03712511
Ga      -1.08748272      -0.32855633       4.82934936       0.10000000       2.38229396       1.28148678       0.55622883       0.00546786      -0.00791133       0.00330505      -3.12520194
Ga       3.99943969       1.82344902       7.33608671       0.10000000      -1.61278780       3.68626212       0.00214668      -0.00051832       0.00334194       0.00628126      -3.11758804
Ga       4.61616311      10.14997898       3.32973567       0.10000000       1.95049871      -1.14543792      -2.11876457       0.01219653      -0.02368253       0.02927347      -3.14994693
Ga       4.75062318       5.12056598       7.78614936       0.10000000       2.01440339      -0.46335494      -2.03299675       0.00136641      -0.01562100       0.03585684      -3.04938841
Ga       0.39846662       1.73980635       3.23386820       0.10000000       0.02295247      -0.60846187       0.18987985       0.00780295      -0.00018524       0.00977824      -3.10420394
Ga       6.81267549      -0.02316580      11.46837483       0.10000000      -0.82339860      -1.91511419      -0.54228322       0.00780379      -0.00711062       0.01719751      -3.25987601
Ga      10.64592261       6.79875444       0.82522289       0.10000000       1.12764324      -0.65050872       1.40656606      -0.02582005       0.00202325      -0.00398058      -3.11616683
Ga       9.02503737       8.25023990       6.15838468       0.10000000      -0.67086356      -2.64258536      -1.54740807       0.00283088       0.01070693      -0.00060951      -3.06851363
O        0.33827587       2.65962365       5.06787736       0.00000000      -0.16692475       0.54353103      -0.26462364      -0.00723454       0.01777416       0.01890227      -7.40183973
O        0.91887954       3.18995743      11.43389288       0.00000000       0.09577924       0.48779565      -1.09113817      -0.01000865      -0.01520538       0.00126775      -7.71995449
O       -0.75183958       5.10597884       2.98809725       0.00000000      -0.92330244      -1.50921174      -0.34223224       0.00395529      -0.02395386       0.00138694      -7.68769264
O        2.21265675       8.83911786       9.10354214       0.00000000       0.63187570       0.01564359      -0.88685312       0.00696114       0.00078997      -0.01078615      -7.75793695
O        5.72739843       0.34628018       5.00678030       0.00000000       1.30689745      -0.45645859       0.09520630      -0.00724980      -0.00398505      -0.00540882      -7.60577822
O        2.93055117       4.78667969      10.94931581       0.00000000      -0.56915339       1.14933492       0.36891072      -0.00681113       0.00901818       0.00936028      -7.72454214
O        1.88804158       5.59632162       4.02496296       0.00000000       0.29581385       0.26087711       0.90496247      -0.00796643      -0.00576274       0.00593322      -7.78892088
O        4.96567826       7.97678035       9.73897355       0.00000000      -0.72508154       0.29562073       0.33465629      -0.00432971       0.00206832       0.00274062      -7.65482855
O        3.27300608       6.39823478      -4.24378271       0.00000000       0.23328960       0.26339176      -1.22008756      -0.01090780       0.00686472       0.00010768      -8.07414818
O        1.03489794       4.60501640       6.46124545       0.00000000      -1.32026923       0.80547187       1.03530723       0.00064763      -0.00370151       0.00049493      -7.73706770
O        0.83931173       9.74746197      -1.56682798       0.00000000       0.27426615       0.54211384       0.21895529      -0.00261987      -0.00719222      -0.01264850      -7.58612728
O        2.83451597       8.40084281       4.25202837       0.00000000       0.56151409       1.46864722       0.94068134       0.00170437      -0.00964130       0.00441545      -7.69013834
O        5.23690336       5.25716206      -2.99803801       0.00000000      -0.58803182      -0.06498376      -0.31626592      -0.01900509       0.00260058      -0.00350664      -7.79547644
O        3.59669801       3.54900499       4.11713560       0.00000000       0.18847923       0.63933626       1.07479017       0.01261154       0.00945229       0.01712319      -7.71985197
O        4.27884843      10.80915567      -3.95303893       0.00000000       0.69959548       0.30630836       0.15446210      -0.00285295       0.01419471      -0.01613092      -7.47962856
O       -0.06786777      11.26116309       1.18805327       0.00000000      -0.92962755       0.16475932      -0.31421080       0.00964884       0.00485185      -0.00738335      -7.82600164
O       -0.86679705       3.40955692       0.62830332       0.00000000      -0.61508202      -0.58225800      -1.59458007      -0.00676869      -0.02281088       0.00070009      -7.85205317
O       -0.66928175       2.80108714       7.78108351       0.00000000       0.24991601      -1.32438373      -0.01464439       0.00906320       0.00658514      -0.00592031      -7.72566652
O       -4.08156659       7.11430755      -0.07209657       0.00000000      -0.08715768       0.08587874       0.21904709       0.00401911       0.01258309       0.00072104      -7.92877245
O        0.14604733       9.39457519       5.66209844       0.00000000       1.08175444      -1.25171946      -0.10147233      -0.00828800       0.02155626      -0.00207481      -7.91583014
O        3.66237868       3.57067536      -4.23518323       0.00000000       0.50861072      -0.26076574      -0.79263537      -0.00647268       0.00498718       0.00458154      -7.80015230
O        2.47322644       1.74011279       6.18818464       0.00000000       0.26187437       0.85570213      -0.61520888       0.00211653      -0.01152126      -0.02414450      -7.91202497
O        3.75634062       9.47455168       1.80807611       0.00000000       1.15442870       0.26364625      -0.51146309       0.00809321      -0.00584091      -0.00964442      -7.53936577
O        2.40392525      10.37124872       6.78831766       0.00000000      -1.14983666       0.71686566       0.59989031       0.01353008      -0.00550161      -0.00226196      -7.82366562
O        3.23945522       0.70340716       3.52234679       0.00000000      -1.24783065      -0.10341901      -0.30138627       0.02317157      -0.00179152      -0.01874152      -7.74902868
O        3.25946329       2.00769672      10.68092829       0.00000000       0.02112828      -0.70570634       0.98635473      -0.01829733       0.00520909      -0.00090560      -7.75749874
O        6.21129551       7.53835819       1.43391931       0.00000000      -0.50128829       0.56141286       0.60310781       0.00703803      -0.00446182      -0.00620566      -7.57715368
O        4.44666799       8.84606358       6.50136523       0.00000000      -1.03888393       0.07619459      -0.02509349      -0.00896460       0.00458133       0.01262176      -7.60725546
O        7.44121941       3.15310900       1.36360885       0.00000000      -0.84796569       0.45063023      -0.16139866       0.01045465       0.01332134       0.01375640      -7.62755251
O        0.88841057       4.67729926       9.21164297       0.00000000       0.45548449      -0.07607750      -0.76715353      -0.00332360       0.00834782       0.00415257      -7.65653038
O        7.27449192       8.75127537      -0.71902587       0.00000000      -0.66418622      -0.66214929       0.56645774       0.00390536       0.00168283      -0.00659698      -7.65320349
O        6.12589586      10.93196490       6.91438814       0.00000000      -0.63753218       0.10876454      -0.49775967       0.03278726       0.01702063      -0.00199270      -7.65401506
O        1.16137460       5.19312316       0.69735816       0.00000000      -0.61646214      -0.72651735       0.49119174      -0.02725131       0.00043112      -0.01079270      -7.68996429
O        4.01655706       5.29782140       6.07183654       0.00000000      -0.66260719       0.44373322      -0.35293230      -0.00246815       0.00752598      -0.00767434      -7.61584091
O       -2.04096177       9.57210833       0.52410106       0.00000000       0.02750843       0.78718200       0.63203990       0.01045332      -0.00011549      -0.01349470      -8.08853531
O        2.10699532      11.73249558       9.96376874       0.00000000       1.80799327      -1.66326155      -0.07504032       0.00958323      -0.01380673       0.00843079      -7.58523512
O        3.02446196       3.32986465       0.78396785       0.00000000       0.04137692      -0.38087098      -0.62919404      -0.01715228       0.01497662       0.01113610      -7.90841579
O        6.12010873       7.01037345       7.03914087       0.00000000       0.08011085       1.44796800      -0.70313686       0.01115664       0.01505013       0.01146147      -7.73905611
O        7.17563857      10.16024214       1.82899594       0.00000000       0.32444262      -0.05024386      -0.33740673      -0.00474077       0.01870364      -0.01202565      -7.66790819
O        4.34080258      12.72016091       6.17595193       0.00000000      -0.14905927       0.43338814       0.24507623      -0.00727646      -0.00722536       0.00904919      -7.48950434
O       -1.38125885       1.53104035       3.04486663       0.00000000       0.41835622       0.51316854      -0.04061172       0.01147489       0.02207579      -0.00210688      -7.60422039
O        1.67147348       1.65890143       8.73353460       0.00000000       0.04976518      -0.11461526       1.38526601      -0.00479447      -0.01027414      -0.02905766      -7.71959114
O        2.91982888       6.99482824       1.79451612       0.00000000      -0.15906001      -0.15013927      -0.65799722      -0.00368598      -0.00381449       0.00270645      -7.74662685
O        1.84374156       7.31675967       6.50486424       0.00000000       0.65483570      -0.38272906      -0.37892051       0.00080275      -0.01048124       0.00999990      -7.88291645
O        0.57951032       1.47313350       1.27545451       0.00000000      -0.90997486       0.10111995       0.00422635       0.04557159       0.00199014      -0.00173715      -7.58948231
O        4.21400564      -0.28260557       7.26984678       0.00000000      -0.18931689      -0.61624581      -0.06228240      -0.01393749      -0.00130313      -0.00291574      -7.81382227
O        4.25109603       6.70815118      -0.53421802       0.00000000       0.97908423      -1.18529016       0.37716499       0.00064664      -0.00413299       0.00306085      -7.60629272
O        4.85466022       6.72371924       4.16101081       0.00000000      -0.65674047      -0.45009461      -0.52143439       0.00197816      -0.00153833       0.00544080      -7.80493784
