80
Lattice="5.91569642 0.0 -1.46806091 -0.66675713 11.30069771 -2.68676537 0.0 0.0 12.65297174" Properties=species:S:1:pos:R:3:initial_magmoms:R:1:momenta:R:3:forces:R:3:energies:R:1 energy=-479.104736328125 stress="0.011294466443359852 -0.004273158498108387 -0.01685289852321148 -0.004273158498108387 -0.05537261441349983 -0.013443605042994022 -0.01685289852321148 -0.013443605042994022 -0.018192971125245094" free_energy=-479.104736328125 pbc="T T T"
Ga       1.78161346       0.84816761       2.00185850       0.10000000       0.57297362      -0.75702463      -1.94704753      -0.01061784      -0.01313511       0.01574220      -3.12046742
Ga       1.79717559       0.83900930       8.33698805       0.10000000      -0.10267776       0.08645499       0.12021295      -0.02246690      -0.00925753       0.01199042      -3.17519426
Ga       1.45248203       6.59359505       0.65314900       0.10000000      -0.59645846      -0.68557901       0.51188682      -0.00046411      -0.00991076       0.01959032      -3.23957944
Ga       1.44737891       6.49591493       7.01400308       0.10000000      -1.99850302      -0.08635771       0.28108222      -0.00330131      -0.00281246      -0.00306515      -3.15574265
Ga       4.70876891       0.84402983       1.36575747       0.10000000       0.58385295       0.40478998       1.44359092       0.01192349      -0.01208635       0.00089529      -3.11324024
Ga       4.82495806       0.73879710       7.72537759       0.10000000      -0.65476255       0.22565866       1.84791614      -0.00780256      -0.00868759      -0.00874657      -3.16107297
Ga       5.22069572       7.51526461      -2.70114243       0.10000000       0.10811396      -1.79162126       1.21927771       0.00562728       0.01117165      -0.00393766      -3.15804601
Ga       5.37765442       7.64347195       3.61371471       0.10000000       1.32129481       0.59330916       1.11029315       0.00100789       0.00268635       0.01659001      -3.15845418
Ga       0.63106035       3.01534235       3.72130230       0.10000000       2.63131255       0.44676848      -0.37922322       0.00904544       0.02760965      -0.01599239      -3.11328864
Ga       0.52933521       3.11692287      10.00876860       0.10000000      -0.20999064       1.15891708      -0.70939520      -0.00252393      -0.00528529      -0.00713581      -3.16128564
Ga      -0.02883122       9.47940635       1.38226083       0.10000000       2.39849020       0.15561279      -0.93147922       0.01049351      -0.00019598       0.00821089      -3.20077372
Ga       0.23069651       8.72335687       8.66172917       0.10000000       0.47352809       0.67655244      -0.78218228      -0.00194433       0.01240292       0.00520837      -3.14994931
Ga       3.55908170       3.02066643       3.08121970       0.10000000       0.61513809      -1.74650688      -1.89102444       0.02782568       0.00188372       0.00040817      -3.12034869
Ga       3.55216780       3.01814865       9.38782861       0.10000000       0.51759165      -1.17266287       0.75872737       0.02732633      -0.00225681      -0.00660251      -3.17526293
Ga       3.23293143       8.56665938       1.72067826       0.10000000      -0.71319178      -0.43954813      -1.45329614      -0.01587939       0.00594354       0.02641923      -3.23961139
Ga       3.23539186       8.66986107       8.02849810       0.10000000      -1.40406372      -2.64376160       0.32695196       0.00454001       0.00008338      -0.01719896      -3.15453720
Ga      -0.56305234       4.82627778      -0.51189789       0.10000000      -1.38715751      -1.70065960      -1.31310534      -0.01964258       0.00352778       0.00183801      -3.16547608
Ga      -0.42876188       4.79257222       5.78894366       0.10000000       1.13798956       2.94851759      -0.13064854      -0.00255278      -0.01972350      -0.01664187      -3.07913876
Ga      -0.80285208      10.37231363      -1.92864172       0.10000000      -0.76510844       0.33648267      -0.40929371      -0.00612763       0.01666997      -0.00395755      -3.08025074
Ga       2.48595391       9.18874522       4.95377943       0.10000000       0.31992551       0.72199655       1.88809718      -0.01359858      -0.00311969      -0.01234905      -3.15541911
Ga       2.71273167       3.51780918      -0.04331951       0.10000000      -0.74706578      -1.66472510       0.43811489       0.01264459      -0.00739279       0.01094257      -3.09595656
Ga       2.81712115       3.57131740       6.33609324       0.10000000       0.51947223      -1.38289661       0.84232143      -0.00717049      -0.01425691      -0.02223708      -3.07374144
Ga       2.42715571       9.18279416      -1.35785898       0.10000000      -0.52093222      -0.81201784      -2.43025062      -0.00545822      -0.00045440      -0.00791949      -3.11414504
Ga       5.24994209      10.33280536       2.89336320       0.10000000       3.26529896      -0.25897878      -0.63049878      -0.01031274       0.00450561       0.01523532      -3.16535878
Ga       2.63422818       0.34240445       5.12031540       0.10000000      -1.41284521       0.62233879      -2.33873892      -0.01951558      -0.00928156      -0.00683543      -3.09718966
Ga       2.52715714       0.29261809      11.39783705       0.10000000      -0.17601038      -0.51467610       2.48332489       0.00614901       0.01175645       0.00692093      -3.07182789
Ga       2.25404912       5.98529836       3.73748104       0.10000000      -0.06022498       0.45150870      -1.11916807       0.00112096       0.01087967       0.03545097      -3.11417651
Ga       2.20269741       5.97162467      10.08344330       0.10000000       1.02609927      -0.61601004       0.76144363      -0.00012356      -0.01168877      -0.00571368      -3.15634060
Ga       5.65067870       1.93953542       5.00347832       0.10000000      -0.39543330      -1.48832459       0.17762129      -0.00765318      -0.01596613      -0.03083851      -3.13226676
Ga       5.60335769       1.92342943      11.26681056       0.10000000       0.60082647      -0.31555183       2.26824613       0.03422000       0.01130540       0.00468583      -3.13061881
Ga       4.71468771       5.67539138       0.99725079       0.10000000       1.92950938      -1.17451089      -3.36369046       0.00213508       0.01496218       0.01281329      -3.19831729
Ga       4.44859812       6.44198128       6.37614351       0.10000000      -4.70598065       1.80472663       1.33851535       0.00294460      -0.01576089       0.00297670      -3.15043974
O        1.21713925       0.57997850       6.39047446       0.00000000       0.00479894       0.66728293      -1.27864600      -0.01558593      -0.02580886       0.00232381      -8.07229137
O        1.17707945       0.53709156      12.78339822       0.00000000      -0.65981139       0.75524267       0.15787548      -0.01613095      -0.02652002      -0.01005414      -8.09366608
O        0.88602286       6.17520871       5.08287525       0.00000000      -0.06462617       0.96899068      -0.16688931       0.00564820      -0.01715626       0.01686257      -8.07453632
O        0.85077528       6.16354340      11.42916985       0.00000000      -0.78272673      -0.59875232       0.26216784       0.01462749      -0.01962456       0.02364510      -8.01490402
O        4.40250576       0.56846953       5.67080633       0.00000000      -0.31359989       0.68402274       1.41256534      -0.02206612       0.02625163       0.01582080      -7.99675894
O        4.34818544       0.53578841      12.03460311       0.00000000       0.89109263       1.52733804      -0.45165136       0.00426814       0.01296815      -0.00692447      -8.07689857
O        4.03819525       6.17479156       4.37631109       0.00000000      -0.75679266       0.52449027       1.02433144      -0.00328106      -0.00690676      -0.01657271      -8.01024723
O        3.97675079       6.18318040      10.57577307       0.00000000      -0.04367389       0.69391913       0.39065341      -0.00168896      -0.00176177      -0.03012138      -7.69773865
O        0.94663295       3.28494915      -0.59854525       0.00000000      -0.38303517       0.01920720      -0.08102846       0.02266395      -0.00745447       0.00574201      -8.00088024
O        0.99395179       3.32414475       5.70377906       0.00000000       0.23144458      -0.62454871      -1.74047559      -0.00319338       0.00689396      -0.00057489      -8.07743645
O        0.64387907       8.98983464      -1.99130059       0.00000000       0.62150658      -0.08864665       0.37617831      -0.00968552       0.00916447       0.02033925      -8.00829983
O        0.71019071       8.97672160       4.46632525       0.00000000       0.60975036       0.05728114      -0.36130099      -0.02264190       0.00087893       0.00897973      -7.69558716
O        4.12923218       3.28326127      -1.31387859       0.00000000      -0.71182976      -0.54415614      -0.13475971       0.00459999      -0.00185157      -0.00094867      -8.07166195
O        4.17110741       3.33164522       4.95457647       0.00000000      -0.27674843      -1.46760556      -0.02436951      -0.01313576      -0.00437001      -0.02486837      -8.09400654
O        3.79941144       8.99073289      -2.69626432       0.00000000      -0.28293120       0.18200202       0.30812530      -0.02516821       0.00017847      -0.00179619      -8.07684517
O        3.83159175       8.99458746       3.60148545       0.00000000      -1.08624002      -1.46491935       0.31805228       0.00528708       0.01693699      -0.00413305      -8.01257133
O        0.19617675       2.10813006       2.04231084       0.00000000       0.25853040       1.17015828      -0.73988279       0.01058727      -0.00116721      -0.00241451      -7.84871340
O        0.21514691       2.17778932       8.35878012       0.00000000       0.21646171      -0.09330194      -0.49545105      -0.01899914       0.01274258      -0.01206020      -7.80452013
O       -0.05245595       7.89817520       0.52197186       0.00000000      -1.07781270      -0.57953463      -0.43511746      -0.01062781       0.01596779      -0.00328299      -7.66639948
O       -0.13702116       7.80297015       7.00846721       0.00000000      -0.25651387       0.31936030       0.52221073      -0.00183372       0.00978655       0.00134712      -7.81958914
O        3.12376996       2.27063271       1.32137809       0.00000000       0.15517981       1.36078588      -0.79701163       0.01531271      -0.01567078      -0.01418674      -8.05287170
O        3.12614603       2.27395258       7.62622097       0.00000000      -0.17497393       1.47292215      -0.97255648      -0.01240627       0.00748575       0.02054024      -7.93580389
O        2.72003207       7.98311512      -0.02594680       0.00000000      -0.65970027       0.15929446       0.61528308       0.01615572       0.00518259       0.00476944      -7.67322159
O        2.82318995       7.89724083       6.29063748       0.00000000       0.90509545      -0.02496650       0.88533720      -0.00877436       0.00388339      -0.00892776      -8.00367832
O        2.21273626       1.59615425       3.76491422       0.00000000       1.75038952       0.12262356       0.52172801       0.01187546       0.00565520      -0.01619893      -8.05221081
O        2.22221830       1.58217595      10.09803658       0.00000000      -0.10373344       0.00592109      -0.26293954       0.00657180       0.00901559       0.02070957      -7.94062138
O        1.95925452       7.17916438       2.40084241       0.00000000      -0.26702285      -1.65855911       0.42262100       0.01128343      -0.00380564       0.02201623      -7.66960621
O        1.86103472       7.26478205       8.75107451       0.00000000      -0.56812983       0.96183655       0.20516351       0.01926170       0.02735206       0.00947532      -7.99713230
O        5.13911205       1.75633353       3.04227929       0.00000000       1.74219554       0.38352856       0.29543925       0.01016898      -0.01423147       0.00066708      -7.84950686
O        5.12888722       1.67785782       9.37724604       0.00000000      -0.38737332      -1.13711960       0.55016553       0.02566032      -0.00719553       0.00618222      -7.79773664
O        4.73610586       7.25739612       1.85697012       0.00000000      -0.06187860       1.07688686      -1.39240755       0.00733015       0.00603169       0.01541185      -7.66700315
O        4.81847031       7.36057878       8.03117773       0.00000000      -0.22641136      -0.15242620       0.56345859      -0.00143304       0.01186985      -0.00724787      -7.82375383
O        2.06401162       4.19511017       3.24757885       0.00000000       0.34665376       1.25576119      -0.60506621       0.01830078       0.00901216      -0.02073460      -7.87526321
O        2.03513392       4.19357377       9.57727455       0.00000000       0.26409004      -0.25059416      -0.74839704       0.01622225       0.00150827       0.01444517      -7.88928986
O        1.72591745       9.93328362       1.83887601       0.00000000      -0.73717171       1.01759547       0.07751492       0.00042503       0.00802475      -0.00919647      -7.85903120
O        1.71262676       9.85633844       8.17266982       0.00000000      -0.74131569       0.92072572       1.06345568       0.00152203       0.02942932      -0.00414596      -7.87529850
O        5.01693988       4.30187760       2.43468304       0.00000000       0.10050812       0.88111609       0.35611126       0.00616727      -0.00446181      -0.01047122      -8.12112713
O        4.96330985       4.23397232       8.89618226       0.00000000      -0.64246759       0.04875927      -0.08623711       0.01846630       0.01455095      -0.01576111      -7.54407263
O        4.59713468       9.91142288       1.15200854       0.00000000       0.86538248       0.75463207       1.04071191      -0.01615849       0.00582278       0.02859139      -7.72531319
O        4.64563184       9.90808039       7.49102563       0.00000000       0.70160379      -0.04933911       0.40279428      -0.00649873      -0.00970584       0.00790051      -7.53648424
O        0.32673400      -0.43939766       2.64454593       0.00000000       1.53497203       0.42912717       0.32986834       0.00283325       0.01343831       0.00389346      -8.12336922
O        0.38766623      -0.37909566       8.83145858       0.00000000       0.55455652      -0.89158090       0.29361310      -0.02091065      -0.01336354      -0.00845233      -7.54229116
O        0.08953081       5.24308954       1.22743344       0.00000000       0.31395780       0.03213156      -0.33704494       0.01392862       0.01329997       0.00971273      -7.72103119
O        0.03777708       5.26049898       7.55203865       0.00000000      -0.18241037      -0.86999368       0.18215684      -0.00959188      -0.01128751      -0.00837871      -7.53353977
O        3.27717446      -0.33142850       1.84356901       0.00000000      -2.01488432       0.47264552      -0.95600546      -0.01705323      -0.02774306      -0.01606797      -7.87631655
O        3.31636875      -0.33497290       8.14880683       0.00000000      -0.44253802       0.65735755      -0.11059136      -0.02142633      -0.01258084      -0.01133571      -7.88961649
O        2.95546052       5.22751445       0.54915496       0.00000000      -0.70208572      -0.85504967       1.37158481       0.01260026      -0.01602548      -0.00260957      -7.86466455
O        2.97003357       5.30661503       6.87671966       0.00000000       0.36926314       0.38592667       0.24008296      -0.00332541      -0.00875556      -0.01865626      -7.87382841
