80
Lattice="5.91569642 0.0 -1.46806091 -0.66675713 11.30069771 -2.68676537 0.0 0.0 12.65297174" Properties=species:S:1:pos:R:3:initial_magmoms:R:1:momenta:R:3:forces:R:3:energies:R:1 energy=-482.4005126953125 stress="-0.035745587199926376 -0.0004940127837471664 0.0010172405745834112 -0.0004940127837471664 -0.032517846673727036 -0.0014734950382262468 0.0010172405745834112 -0.0014734950382262468 -0.03186355531215668" free_energy=-482.4005126953125 pbc="T T T"
Ga       2.27529318       1.98785118       0.97864673       0.10000000      -0.54438728       2.44778436       1.33389275       0.01157804      -0.00832641      -0.01889041      -3.21159434
Ga       2.30507920       1.97583919       7.28602844       0.10000000       1.26624307       1.86640133      -0.62366896      -0.00623231      -0.00234445       0.01107557      -3.21060467
Ga       1.95982998       7.62467323      -0.37894469       0.10000000       1.38841702       1.09387438       1.29944173       0.01301644       0.00909837      -0.01335886      -3.21060395
Ga       1.94772905       7.63680978       5.95462442       0.10000000       0.99531668      -0.56940821       1.00882061       0.00829404       0.00273604       0.00615718      -3.21096277
Ga       5.23422299       1.98693037       0.24889489       0.10000000      -1.62397345      -1.45041955       1.09879110       0.01424976      -0.01126667      -0.03943581      -3.21169305
Ga       5.26175407       1.97603014       6.55297477       0.10000000      -0.09450039       0.72029181       1.96384200      -0.01351229      -0.00123318       0.00446777      -3.21133018
Ga       4.91476343       7.62897362      -1.12100407       0.10000000      -0.19366840      -3.23172467       1.15555788       0.02768691       0.00134895       0.01247115      -3.21072245
Ga       4.90844195       7.63711418       5.22087114       0.10000000      -0.44986070      -0.02000346      -1.91293984      -0.00411641      -0.00292630      -0.00103304      -3.21129489
Ga       1.20351693       4.10825176       3.00081927       0.10000000       0.94260456      -0.64445803      -2.18988816       0.02286647      -0.00793958      -0.01650878      -3.21106577
Ga       1.24521857       4.09174439       9.30903880       0.10000000      -2.99650933      -2.17840286       0.33624965      -0.03872840       0.01233594       0.01704107      -3.21149087
Ga       0.90233142       9.74859094       1.63241310       0.10000000       0.52628261       1.13902904       1.81170857      -0.02174678      -0.00261010       0.02151386      -3.21164107
Ga       0.88076946       9.75914265       7.97336341       0.10000000       1.91375346       2.05810091      -2.34215710       0.00789029      -0.01419856       0.00461146      -3.21085906
Ga       4.16192214       4.10695826       2.26808817       0.10000000      -4.63946607       0.48907991       0.42299623       0.02489422       0.00123695      -0.01009248      -3.21071124
Ga       4.20119813       4.09521465       8.57270025       0.10000000      -1.21752759       1.11358210       0.75701678      -0.02744212      -0.00025708       0.02245910      -3.21153855
Ga       3.85964660       9.74720701       0.89953581       0.10000000       1.30263471       0.16073321      -0.79597099      -0.02368088       0.00486800       0.01211286      -3.21115780
Ga       3.83982439       9.75386188       7.24404195       0.10000000      -1.51956446      -1.59752353       3.12522768      -0.00224494       0.00153632       0.00040755      -3.21092176
Ga       0.46160507       4.69737289      -0.14671499       0.10000000       0.59682324       0.64547174      -0.73220782      -0.01636064      -0.01340018       0.00320564      -3.16042852
Ga       0.43853424       4.70591729       6.20033315       0.10000000       2.22803829      -0.26660025       1.90227639      -0.01267773      -0.00254685      -0.01006101      -3.15952945
Ga       0.11556478      10.35818560      -1.47948716       0.10000000       1.63377595       0.25951894      -0.47463111      -0.02656461       0.00771483      -0.00393008      -3.16062760
Ga       0.11845333      10.34734986       4.83070174       0.10000000       0.01000220      -1.81687923      -0.21836801       0.00990492       0.01568379       0.01961635      -3.16025996
Ga       3.42221173       4.69974588      -0.87424819       0.10000000       0.57948996       0.57216549      -2.06705884      -0.01620860      -0.00308895      -0.01074009      -3.16040325
Ga       3.39388214       4.70473427       5.46186357       0.10000000      -0.63049736      -1.59882488       1.93832492       0.01364703      -0.01451707      -0.00141297      -3.15944719
Ga       3.07126802      10.35764371      -2.21286092       0.10000000      -0.83764838       2.27389415      -1.50094918      -0.01104122       0.00219841      -0.00896882      -3.16045976
Ga       3.07865312      10.34840042       4.10537595       0.10000000       0.42948301      -0.59389186       1.93695920       0.00284165       0.02781474       0.00237469      -3.16029668
Ga       3.08083280       1.37432488       4.08187663       0.10000000      -0.89004074       0.97592320       0.82273071      -0.00582094      -0.00167569       0.01474361      -3.16028690
Ga       3.04422234       1.38365930      10.43522515       0.10000000       0.75001689      -0.73615948       0.56719904       0.02703627      -0.01167051      -0.01179226      -3.16097975
Ga       2.71969343       7.03939882       2.76383033       0.10000000       0.10558361      -0.19479859       0.09140350       0.01614339      -0.02865218      -0.03601070      -3.16010213
Ga       2.73888874       7.02406980       9.06691521       0.10000000       1.12185995       0.99499853      -0.08017922       0.00620188       0.00446440       0.00948954      -3.15998077
Ga       6.04098567       1.37889064       3.35704832       0.10000000      -0.20297132       2.64887627       1.06700944      -0.01249158      -0.00765230      -0.00492530      -3.16025877
Ga       5.99969054       1.38160101       9.69989594       0.10000000       0.98017239      -0.66695338      -1.28981336       0.03283415       0.00697635      -0.00653717      -3.16126847
Ga       5.67467278       7.03664758       2.01696941       0.10000000      -0.12023574      -2.09457062      -0.25466588      -0.00217972      -0.03086721       0.00778240      -3.15949941
Ga       5.70110655       7.02701952       8.33722692       0.10000000       2.56470418       3.18866752       0.42446291      -0.00392816      -0.01844895       0.00411564      -3.15979147
O        1.84719955       1.64694504       5.42527363       0.00000000       0.97813360       0.23693175      -0.74232380      -0.02627200       0.00804319       0.00889698      -7.92583370
O        1.80576206       1.66005609      11.77303170       0.00000000      -0.29630710       0.05763805      -0.91842635       0.03471022      -0.01178838      -0.01403368      -7.92630672
O        1.47767378       7.31148325       4.09728641       0.00000000       0.54951111      -0.01505793      -0.03766131       0.01640989      -0.00802365       0.00283372      -7.92791224
O        1.50575996       7.29697968      10.41157507       0.00000000       0.02785021      -1.41419507       0.63827287      -0.00636382       0.01510657      -0.01220968      -7.92793036
O        4.79803122       1.65349607       4.69109755       0.00000000       0.19918171      -0.41467966      -0.85144078       0.00528949      -0.00174791       0.01179433      -7.92560291
O        4.76592249       1.65841024      11.04145669       0.00000000      -0.62555588      -1.06005489       0.24744898       0.01847307      -0.00129098      -0.01203552      -7.92507267
O        4.44244973       7.31939558       3.36042786       0.00000000      -0.18307396       0.50123867      -0.51634159       0.00226995      -0.02667952      -0.00578287      -7.92568207
O        4.45841496       7.30213594       9.67225246       0.00000000      -1.10274266       0.13250425      -1.11433639       0.00243019      -0.00431637       0.00739056      -7.92963171
O        1.70300603       4.41739597      -1.48244676       0.00000000      -0.02771970      -0.08940969      -0.53113107      -0.02509352       0.01909199       0.01328406      -7.92670965
O        1.67356397       4.42408708       4.86056606       0.00000000      -0.26982773       0.47774811       0.63181014       0.00461292       0.01580004      -0.00238436      -7.92706585
O        1.35101505      10.08640411      -2.82101638       0.00000000      -0.41891418      -1.18360926       1.08185917      -0.01933762      -0.01682034       0.01756907      -7.92789364
O        1.36041056      10.06874620       3.49579008       0.00000000      -0.08980363      -0.50028086      -0.06827343      -0.00764006       0.01258443       0.00305563      -7.92522907
O        4.65518870       4.42001060      -2.21759199       0.00000000      -1.07055361       0.80005309       0.87567635      -0.00363724       0.01060165       0.01390222      -7.92711306
O        4.63434799       4.43339826       4.12460923       0.00000000       1.58862479       0.67111965       1.33788348      -0.00055960      -0.00419227       0.00038493      -7.92736530
O        4.30963574      10.08137003      -3.55078906       0.00000000       0.59274757      -0.91525630       0.00286423      -0.00947408       0.00037626      -0.00154957      -7.92715454
O        4.31230020      10.07159534       2.76189693       0.00000000      -0.32133465       0.55278276       0.09740171       0.01711257       0.01760854       0.00821045      -7.92587233
O        0.75740968       3.39442818       1.16536878       0.00000000       0.30330531      -0.33987243       0.10033717       0.01563376      -0.00136402      -0.01333785      -8.03512001
O        0.77816511       3.38218172       7.47994919       0.00000000      -1.60052941       0.34602120      -0.95452735      -0.01334892       0.00624117       0.00408933      -8.03583813
O        0.43948960       9.03429495      -0.19585981       0.00000000       0.58212896      -0.94413999      -1.04140605      -0.00339755       0.00148571       0.01559088      -8.03509617
O        0.42876694       9.04548919       6.14091600       0.00000000      -0.73714028       0.21793070      -1.08835050       0.00453027      -0.01126736       0.00053924      -8.03760910
O        3.71571811       3.39370893       0.43336435       0.00000000      -0.82743250      -1.27775707       0.41339668       0.01033232      -0.00778675      -0.01311457      -8.03672028
O        3.73766413       3.38360703       6.74558459       0.00000000       0.60092067      -0.82263565      -0.96300113      -0.02367959       0.01458791      -0.00849232      -8.03743362
O        3.39654855       9.03501235      -0.92838741       0.00000000       0.48458076       0.91596721       0.14432137       0.00050171      -0.00866938       0.01188421      -8.03645039
O        3.38684397       9.04237884       5.40938432       0.00000000      -1.21269409      -0.13906099      -1.67208410       0.00836603      -0.00691700      -0.00341797      -8.03565407
O        2.73562754       2.69986348       2.80646461       0.00000000      -0.73633486       0.13859493      -0.23887015       0.01642407      -0.00263050      -0.00728959      -8.03435993
O        2.75429033       2.68615551       9.12261753       0.00000000      -0.82576252      -0.03784975       0.37834184      -0.01628067       0.01514578       0.00263628      -8.03671455
O        2.41438518       8.33941927       1.45160906       0.00000000      -0.03445817       0.57086424       0.63760462      -0.00329097       0.01140517      -0.00666484      -8.03596210
O        2.40800632       8.34793659       7.78487473       0.00000000       1.31435418      -0.06164506       0.07701692       0.00160197      -0.00153151      -0.00945520      -8.03530407
O        5.69484199       2.69955189       2.07499127       0.00000000      -0.34655371       0.63742783      -0.04942213       0.01323662      -0.00439513      -0.00558507      -8.03616047
O        5.71199300       2.68669627       8.38982256       0.00000000      -0.41252784       1.59219976       0.82209468      -0.01020200       0.01120621      -0.00461587      -8.03452110
O        5.37338085       8.34255674       0.71219880       0.00000000      -0.38684134      -0.62341029      -1.09253289      -0.00402286      -0.00134382       0.00917006      -8.03473282
O        5.36848577       8.34700375       7.05180781       0.00000000       0.24484706      -0.38003898       0.27954296      -0.00661847       0.01284412      -0.01462540      -8.03535843
O       -0.36653982       5.26540912       3.00093162       0.00000000       1.09977120      -1.83497003       0.21640211       0.02584489       0.00534186      -0.00071755      -7.81661701
O        2.62973984       5.25417648       8.57041196       0.00000000       0.71402895       1.23744292      -0.06169112      -0.02896441       0.00698167       0.01641767      -7.81701756
O        2.29022067      10.90677514       0.89570730       0.00000000       0.18557855       0.92043340       0.38654156      -0.01935298       0.00935954       0.02705364      -7.81675339
O        2.27095065      10.91647851       7.24827514       0.00000000       1.04150284       0.58012199      -0.39372547      -0.00744489      -0.01428699      -0.00945987      -7.81503582
O        2.59450465       5.26825707       2.27883566       0.00000000      -0.48027217       0.72465641      -0.45547862       0.01684090      -0.01333359      -0.03602785      -7.81690788
O        5.59177356       5.25481201       7.84581888       0.00000000      -0.22810895      -0.44502282      -0.22819877      -0.03555556       0.01257366      -0.00492491      -7.81599665
O        5.25043124      10.91003554       0.17490426       0.00000000       0.35612817      -0.24713305      -0.55534118      -0.02141657      -0.00672746      -0.00834070      -7.81514215
O        5.22449914      10.91584050       6.51267418       0.00000000       0.02582337      -1.18168028       0.65449295       0.01102366      -0.02876410      -0.00853957      -7.81666851
O        0.88959487       0.82590885       1.71118101       0.00000000      -0.66724677      -0.44281505      -0.33375752       0.01339253      -0.00881860      -0.00868864      -7.81452751
O        0.91225658       0.81588048       8.00750231       0.00000000       0.04990041      -0.83573692      -0.69152499      -0.00160431       0.00240740       0.02805452      -7.81546259
O        0.56735363       6.46643633       0.34380316       0.00000000       0.28862110      -0.89069126      -0.51339505       0.03030158       0.03441423       0.01937915      -7.81617165
O        0.56107388       6.47607660       6.69021974       0.00000000       0.76149802       1.12411265      -0.30877900       0.01049436       0.00332737      -0.00236589      -7.81835651
O        3.84674792       0.82500245       0.97648387       0.00000000      -0.51877738      -0.50303766       0.93548366       0.00957887       0.01075017      -0.00616331      -7.81406307
O        3.87226989       0.81679968       7.28248410       0.00000000      -0.28210437      -0.20766425      -0.56811716      -0.00032332      -0.00337648       0.00691906      -7.81448650
O        3.53153406       6.46826181      -0.38078512       0.00000000      -1.12026101      -0.81760923      -0.70171692       0.00710907       0.01790068      -0.00670478      -7.81703329
O        3.51732710       6.47590638       5.94741063       0.00000000      -0.54051245       0.20175097      -1.84835250       0.00325231       0.00649422       0.01752314      -7.81715536
