80
Lattice="5.91569642 0.0 -1.46806091 -0.66675713 11.30069771 -2.68676537 0.0 0.0 12.65297174" Properties=species:S:1:pos:R:3:initial_magmoms:R:1:momenta:R:3:forces:R:3:energies:R:1 energy=-477.3160095214844 stress="-0.019520169124007225 -0.0028594492468982935 -0.004798369016498327 -0.0028594492468982935 -0.039949774742126465 -0.011820665560662746 -0.004798369016498327 -0.011820665560662746 -0.027762193232774734" free_energy=-477.3160095214844 pbc="T T T"
Ga       1.82454136       2.13353166       1.12934681       0.10000000       2.50154041       0.80866102       1.15872723       0.00326761      -0.00101157      -0.01072443      -3.20066786
Ga       1.85967929       2.20651826       7.40170963       0.10000000       0.62629739      -2.17661195      -0.70997955      -0.00656248       0.00216751       0.01654507      -3.15429568
Ga       3.51864773       6.93031328       1.79695831       0.10000000      -0.73090177       1.03576136      -0.15735413       0.00121230       0.00770951      -0.01191022      -3.13688278
Ga       1.46034332       7.77578050       6.04460279       0.10000000       2.18319378       0.39814420       0.75477120       0.00173427       0.00533864      -0.00369787      -3.20732880
Ga       4.82202703       2.15597892       0.49676045       0.10000000      -0.49576633      -1.48882334       0.24920760       0.00477747      -0.00047038       0.00094691      -3.21786070
Ga       4.74111171       2.20142331       6.70855873       0.10000000       0.38787443      -1.46249400       1.73791293      -0.00257483      -0.00868075       0.01200403      -3.18244338
Ga       4.41151778       7.90493750      -1.04806028       0.10000000      -0.43702158       1.68462919       1.04309659       0.00842826       0.00207976       0.00670370      -3.11249399
Ga       5.05979214       7.10348306       8.37074880       0.10000000       1.34038668       1.86647754      -1.44280412       0.00035683      -0.01651653       0.00427238      -3.04689837
Ga       0.75139869       4.18198139       3.17231793       0.10000000       0.83269079      -2.52350862       0.26532791       0.00520892      -0.01240741       0.00686773      -3.14974976
Ga       0.74663198       4.28267811       9.41789838       0.10000000      -0.92832558      -1.60237319       2.15209468      -0.00853010      -0.00046353       0.00244839      -3.19751596
Ga      -0.02642222      10.95510817       0.48096569       0.10000000      -0.71926235      -0.59538547       1.34892633       0.00004688      -0.00280719      -0.01913913      -3.16088820
Ga       0.00824448      10.90968104       6.72701786       0.10000000       0.26376387       0.52673791       1.74679338       0.01757780      -0.00601281       0.00528328      -3.13528371
Ga       3.80550739       4.15234598       2.40542022       0.10000000       1.47188958      -0.42663092       1.36961324      -0.00049897       0.00912767      -0.00317274      -3.12610221
Ga       3.67173502       4.28592413       8.71283805       0.10000000       0.79466152      -0.51286829      -0.23458377      -0.00773520       0.01044110      -0.00756583      -3.19031286
Ga       3.14166797       9.91671040       0.95818656       0.10000000      -0.41685881      -0.32007114      -0.68562895      -0.02858670       0.03018770      -0.00580802      -3.14593148
Ga       3.16374302       9.94186686       7.26080389       0.10000000       1.77001749       1.24170898      -0.94067841      -0.00451078       0.01111273      -0.00505221      -3.21629763
Ga      -0.02467912       4.85190975       0.00345597       0.10000000      -0.20621388       0.07796390      -1.41860687       0.02023458      -0.00416934       0.00423140      -3.09610558
Ga      -0.03625187       4.89944927       6.30144147       0.10000000       2.01324355       1.27872086      -0.26560280      -0.00268601       0.00333028       0.00819148      -3.18034601
Ga      -0.40769769       9.71310803      -2.32596249       0.10000000       2.49314917       1.62221144       1.89887752       0.02473641      -0.02892874      -0.00052737      -3.04705262
Ga      -0.51122526       8.98123493       4.22556144       0.10000000       3.46057969      -0.69054625      -0.68879416      -0.01230242      -0.00287575      -0.00159647      -3.17877579
Ga       2.91608216       4.84454770      -0.75804357       0.10000000       0.23249157      -0.37556191      -1.30190160       0.00403094       0.00536624      -0.00440502      -3.12278461
Ga       2.93129416       4.94140855       5.53868302       0.10000000      -1.14851094      -0.65438405      -0.09882992      -0.01324553       0.01620685       0.00672009      -3.15056849
Ga       2.62428162      10.60979573      -2.20284507       0.10000000      -0.30821660       0.50311980      -0.71687950       0.00121272      -0.00834973      -0.01891604      -3.18096828
Ga       2.46884397      10.51266936       4.06345955       0.10000000      -1.66173245       0.71740475       2.87886493      -0.00268511       0.00129867      -0.00076829      -3.14457989
Ga       2.70915838       1.63353476       4.31666488       0.10000000      -0.62236052      -0.67876372      -0.11693462      -0.01094206       0.01701848      -0.00013768      -3.17282534
Ga       2.61313456       1.64592728      10.63309009       0.10000000      -1.30583054      -3.15368488       1.70417054      -0.00352452       0.01247049       0.00162729      -3.12845540
Ga       4.39661983       7.84435448       5.25471911       0.10000000       1.67545051      -2.43533864       0.64078867       0.00064753      -0.00847354       0.00919448      -3.17895150
Ga       2.15880313       7.29624143       9.10355421       0.10000000      -1.82740051      -2.62762309      -4.72394508       0.00048968      -0.00719871      -0.00026695      -3.17340732
Ga       5.90437349       0.53787372       4.58206284       0.10000000      -2.01029003       0.08288046       1.42402888       0.00021251       0.01310945      -0.00888095      -3.19597101
Ga       5.51754653       1.62679099       9.91708954       0.10000000       0.05044476       1.28005752       0.35914581       0.01374926       0.00085085      -0.01175248      -3.16326427
Ga       6.54846319       6.99166649       1.05224580       0.10000000      -2.64766137      -1.53921030      -0.26215550       0.00382540      -0.01200268       0.00737944      -3.08748174
Ga       7.35840766       7.86953702      10.84081277       0.10000000      -1.16242606       1.12267155      -0.40322234       0.00699660      -0.00722955       0.00256049      -3.10800004
O        1.35318258       1.81984989       5.58423132       0.00000000      -0.92942290       0.00785016      -0.35246694      -0.00082670       0.01794502       0.00431865      -7.73270988
O        1.33276193       1.98145861      11.90472300       0.00000000       0.93853261       0.37125629       0.61634005       0.00370101      -0.00322162      -0.01164794      -7.87702465
O        0.94605642       7.72319724       4.19276922       0.00000000      -0.04211915      -0.16450603       0.06376054      -0.00349599       0.00072220       0.00449233      -7.54739475
O        0.88357094       7.60317876      10.46618121       0.00000000      -0.37208909       1.72461726      -0.50930466       0.00322187      -0.01217391       0.00177269      -7.99826384
O        4.44923169       1.80621571       4.85551471       0.00000000       0.48178988      -0.73289215       1.08767031      -0.01042053       0.00414743       0.01226544      -7.72893095
O        4.30903215       1.93407569      11.25262194       0.00000000       0.77223261      -0.63576293      -0.05746239       0.01018762      -0.01702395      -0.00104257      -7.86585379
O        4.09594797       7.69167174       3.38681831       0.00000000      -0.29033997       0.81942624      -1.25768457       0.01237881      -0.01171428       0.00445672      -7.47420931
O        3.90533839       7.47029353       9.79998508       0.00000000       1.13701056      -0.59742483       0.05246165       0.00146735      -0.01623136       0.00925313      -7.89409781
O        1.18261781       4.73425618      -1.37931600       0.00000000      -0.69489483       1.41106410       0.41585038       0.00924556      -0.01658373      -0.00563857      -7.90368366
O        1.20854472       4.70861070       4.95624895       0.00000000      -0.08231419       0.90831101       0.58860248      -0.01056933       0.00370811       0.00410448      -7.96885967
O        1.00362697      10.54117260      -2.93021009       0.00000000       1.16144651       0.36542413       0.13436311       0.00688334       0.01278520       0.01532409      -7.02922153
O        0.64747129      10.40008484       3.64549010       0.00000000       1.24319822       0.13030361       0.01180875      -0.01070359       0.00550313       0.00784666      -7.71548080
O        4.17482545       4.64698552      -2.08344142       0.00000000      -0.59516093       0.02127476       0.02743304       0.00472651      -0.01415573      -0.01404864      -7.90685034
O        4.16103990       4.66080687       4.20958194       0.00000000       0.00946098      -0.15135585       0.54403347      -0.00275692       0.01278410      -0.00734796      -7.97073221
O        3.80334379      10.40620796      -3.61191272       0.00000000       0.14129897      -0.72764709       0.00043956       0.01794167      -0.01346877      -0.00626859      -7.80703497
O        3.83034539      10.32327558       2.70180300       0.00000000      -0.96660161       0.69647421       0.99078203      -0.01134190       0.00962644      -0.00806110      -7.95837879
O        0.35276231       3.57979173       1.28119270       0.00000000       0.79585705      -0.48760470      -0.78651502       0.00425658       0.01766819       0.01221997      -7.94660568
O        0.31049261       3.58756132       7.61274806       0.00000000      -1.11355576       0.15073957       0.13416426      -0.00631491      -0.00314987       0.00440171      -8.03222656
O       -0.13678274       9.24979327      -0.37182370       0.00000000       0.21864088       0.16083643      -1.61072418       0.00239915      -0.00504055      -0.00308327      -8.16117287
O       -0.13727517       9.19664142       6.14019192       0.00000000      -0.65109696       0.46485940       0.34229531      -0.00683650      -0.01299500       0.01111847      -7.98572016
O        3.19687113       3.61331584       0.58148706       0.00000000       0.91205335       1.46795149      -0.11213000      -0.00040802      -0.00378555       0.00407875      -7.91587973
O        3.23702504       3.61602835       6.85502442       0.00000000       0.39179870      -1.49252087      -0.70609318       0.00125427      -0.00696886      -0.00073698      -8.08746910
O        2.89159626       9.23652510      -0.89586600       0.00000000      -0.47389308      -0.14892416      -1.10782486      -0.00522728       0.00990194       0.00055230      -8.16453457
O        2.91754869       9.29143252       5.43642179       0.00000000       0.56300124       0.23036459      -0.08460806       0.00219131       0.01140416      -0.00223440      -7.97796106
O        2.31795611       2.91836172       2.97729741       0.00000000      -0.43076595       0.35311352      -0.14214488      -0.01000065      -0.00027411       0.00228328      -8.13872814
O        2.27968847       2.91047148       9.26858740       0.00000000      -0.89219472      -0.16157308      -0.07445454      -0.01819375       0.00412872       0.00595817      -8.08005238
O        2.02056794       8.29687704       1.46385443       0.00000000      -0.91406782      -0.74520493      -0.66444955      -0.01128289       0.00968385      -0.00256301      -7.76633263
O        1.95776876       8.50392716       7.76805946       0.00000000       0.84597723       0.37587008       0.47433653       0.00623812       0.00755505      -0.00632888      -7.64783192
O        5.26725363       2.97067446       2.17351148       0.00000000      -0.00686702      -0.22170473      -0.46046510      -0.00748383      -0.00191286       0.00461304      -7.50883770
O        5.21468853       2.89060955       8.54388795       0.00000000      -1.34064430      -0.42129326      -0.17770116       0.00185613       0.00444916       0.00036862      -8.01976871
O        4.82881750       8.25494147       0.86897686       0.00000000      -0.78606574       0.09398247      -0.12464637       0.00110613       0.00053939      -0.01188105      -7.77669764
O        4.80799664       8.60276382       7.33923247       0.00000000       0.03252222      -0.50044205      -1.03079399       0.03227478      -0.02196470      -0.01629100      -7.66210127
O        2.07308716       5.62779702       2.36368972       0.00000000       0.04399244       0.17559456      -0.14199277       0.01120283      -0.00958617      -0.01527024      -7.55939484
O        2.12458439       5.48027062       8.74023951       0.00000000      -0.79952938       1.61110226      -0.47442298      -0.00664581       0.00112158      -0.00404063      -7.78318977
O        1.73857645      11.21183192       0.95648545       0.00000000       0.58404574      -0.84372338       0.00895616      -0.01889300       0.02348763       0.00022556      -7.99528360
O        1.77115181      11.30648874       7.14580071       0.00000000      -0.65767820      -1.19218148      -0.99506328       0.00958391       0.00132623       0.00763441      -7.86143637
O        5.05773769       5.61056317       1.55104875       0.00000000      -0.67343907       0.48038554      -1.31277548      -0.01321846       0.01925278      -0.00043017      -7.50450468
O        5.05733500       5.37857881       7.93461288       0.00000000       0.75285093       0.29658046       0.07090423      -0.02160218      -0.00024658      -0.01113405      -7.79324102
O        4.58369791      11.08011707       0.27789155       0.00000000      -0.63415229       0.62341075      -0.70188687       0.00216085       0.00275142      -0.00922978      -7.73558331
O        4.65472354      11.23154638       6.56712731       0.00000000       0.65139153       0.49116679       0.11853790       0.00358906      -0.01077422      -0.00667863      -7.75184345
O        0.43541134       0.97569410       1.86779492       0.00000000      -0.05406583       1.21949587       0.83009867      -0.00485932       0.00720754       0.01252154      -7.82777691
O        0.38831658       0.98165594       8.08737895       0.00000000      -1.32519758       0.72386607      -0.56266454       0.00579891       0.00749686       0.02220041      -8.02937889
O        0.09018897       6.67644737       0.52397416       0.00000000      -1.63952667       0.00267497      -0.04685848       0.01567307      -0.00619572       0.00961858      -8.14280224
O        0.06644491       6.66003793       6.87250825       0.00000000       0.09228779       0.51664676       0.47463668       0.00720143      -0.00825033       0.00036412      -7.77331209
O        3.40119646       1.03807073       1.10930702       0.00000000      -0.69498132       0.21905579      -0.32306294       0.00829933      -0.01230010      -0.00425040      -7.78703070
O        3.36991885       0.98632436       7.33909055       0.00000000      -0.59016816       0.35542507       0.21859006      -0.01037824      -0.00099775       0.01259628      -7.72888851
O        3.03788291       6.63694820      -0.26890670       0.00000000       0.46718815       0.76882448      -0.74998397      -0.00768141       0.00139523      -0.00063542      -8.03680038
O        3.08349725       6.68450268       6.06473133       0.00000000      -0.05464526       1.00354267       0.79767025      -0.00006066      -0.00779378      -0.00639963      -7.86424589
