80
Lattice="5.91569642 0.0 -1.46806091 -0.66675713 11.30069771 -2.68676537 0.0 0.0 12.65297174" Properties=species:S:1:pos:R:3:initial_magmoms:R:1:momenta:R:3:forces:R:3:energies:R:1 energy=-471.62548828125 stress="-0.026952942833304405 0.007388491649180651 0.015549693256616592 0.007388491649180651 -0.06827392429113388 -0.011369498446583748 0.015549693256616592 -0.011369498446583748 -0.07159566879272461" free_energy=-471.62548828125 pbc="T T T"
Ga       3.93447496       2.49591010      -0.45657405       0.10000000      -0.26434999       1.33998989       1.27960497      -0.00260817      -0.01440997      -0.00829987      -3.14906907
Ga       1.37580164       2.79781710       5.40929660       0.10000000       0.11324471      -0.41573011      -0.79681563       0.02080415       0.01872610      -0.02083371      -3.09496593
Ga       1.26161153       6.79073202       0.34442382       0.10000000      -0.17867830      -2.71545793       0.82195084       0.00110129       0.00079136       0.01135699      -3.11168814
Ga       6.16621101      11.10053236       2.63729915       0.10000000      -0.40042539       0.03573308      -1.89928267      -0.00399443       0.02579285      -0.01715226      -3.15709734
Ga       6.41565461       1.69201713      -1.48896700       0.10000000       0.60721801      -0.65464830       0.12290712      -0.00293754       0.00286277      -0.01200543      -3.17178893
Ga       2.91543607       2.01149901       8.03646569       0.10000000      -2.02595010       0.82924913      -0.81393024      -0.01118879       0.00243888      -0.00197341      -3.16486812
Ga       4.12685174       7.82268369      -1.36548940       0.10000000       1.04531883       1.21002174       0.97910955      -0.00132912       0.00715016      -0.00885202      -3.11269331
Ga       5.07400512       9.21623155       4.46071910       0.10000000       0.08285935      -1.39407222      -1.73437797       0.00948678      -0.00288416      -0.00703369      -3.15007257
Ga       0.39707214       4.46440196       2.13303331       0.10000000      -3.40211163      -0.51442990       1.32037255       0.01749139       0.00761162       0.01794958      -3.10347748
Ga      -0.15751406       6.04728048       7.33199765       0.10000000       0.01853169       1.17987876      -0.96007876       0.00761455      -0.00398578       0.01985780      -3.19991016
Ga       0.81566837       9.88241681       1.10256164       0.10000000      -0.01020396       1.48898181       2.98187182      -0.00595181      -0.00551677       0.00765673      -3.16139770
Ga      -1.99889547      10.99714064       8.41343129       0.10000000       2.04874836       1.40671406      -1.84575201       0.00322556       0.00319195      -0.00424175      -3.12401342
Ga       2.29633160       1.38174979       2.37174546       0.10000000      -1.75094414      -1.23790798      -0.64863222      -0.00683025      -0.00808794       0.00530113      -3.15109134
Ga       3.06472548       5.05165783       7.50201164       0.10000000       3.81591784      -0.04517798      -1.06292878       0.00524439      -0.00394152       0.00575852      -3.15071011
Ga       3.93196622      10.24620848       0.28722530       0.10000000       0.96607301       2.04713764      -1.11086991      -0.00573234       0.01480199      -0.01860223      -3.02292061
Ga       0.93899544      11.58424443       7.50446205       0.10000000       0.85240062      -0.49767821      -1.37646095       0.00180315       0.00087097      -0.01632726      -3.13883734
Ga      -2.59587996       4.82976481       2.94924449       0.10000000       0.20858251      -0.08890364       0.64226825       0.01056382       0.00789134      -0.01011839      -3.15711737
Ga       1.53619646       5.61147571       4.62861597       0.10000000      -0.03216744       0.63973663       0.41286986      -0.02271271       0.02604853       0.03013080      -3.11034870
Ga       1.40002287       9.84102007      -2.08802937       0.10000000       1.39339147      -0.17012115      -0.67428352      -0.00450581      -0.00243484      -0.00073582      -3.09730220
Ga       2.31427884       8.67882677       5.27352727       0.10000000       0.31839162      -0.17949520       1.54138733       0.00059593       0.01440948      -0.01438247      -3.00928855
Ga       1.92491024       6.46520993      -2.66136475       0.10000000       0.19459102      -0.54672176      -1.04256218      -0.00169523      -0.00273165       0.01584297      -3.19562531
Ga       4.84962307       4.24591245       3.86316630       0.10000000       0.20261705      -0.02847048       1.17884490       0.00117352      -0.00240490       0.01073880      -3.07176280
Ga       4.67683160      10.54128215      -2.65194705       0.10000000      -0.79188472       1.92726256      -1.31116872       0.01811937       0.00513439      -0.00227287      -3.13821959
Ga       2.84525864      11.88121392       2.45872826       0.10000000       2.41111784       1.29640435       0.12356974       0.00392620      -0.00740354      -0.00153105      -3.16841173
Ga      -0.47002391       1.83129883       3.46837417       0.10000000      -1.04644406      -0.23539294       1.63377025      -0.00542939      -0.00042900       0.00043632      -3.03788519
Ga       1.69047041       3.74334473      10.50561561       0.10000000      -0.47825227      -0.48231334       3.44342369      -0.00230073       0.00479923      -0.00270773      -3.15233660
Ga       2.66646012       7.49183342       2.73441965       0.10000000      -1.46265735       1.57859201       0.14196184      -0.00037140      -0.00757491      -0.00047754      -3.00555229
Ga       1.32967072       8.52828895       8.12956115       0.10000000       0.10467155       0.76545973       0.76539681       0.00308754      -0.01121072       0.00432233      -3.05304003
Ga       5.41922712       2.82258307       6.89041192       0.10000000       1.76451414       0.39435174      -1.87707562      -0.00002353      -0.01762948       0.00017540      -3.09447694
Ga       4.95170340       4.87493085      10.28096417       0.10000000      -3.54585238      -3.30185199      -0.29164613       0.00134878      -0.00157824       0.01569069      -3.16789198
Ga       5.37844431       7.65613286       1.93883310       0.10000000      -0.85652764      -0.22035055      -0.37598667      -0.00707695       0.01631997      -0.01594314      -3.12064385
Ga       4.44962103       7.96124201       7.88729073       0.10000000      -0.69968389      -1.23620768       0.46618595      -0.01040572      -0.00331850      -0.00551929      -3.18451738
O       -0.50169647       2.32636088       5.24194179       0.00000000       0.32469729       0.11790708      -0.36872912       0.01798246       0.00409645      -0.01172420      -7.45047188
O       -0.74749240       3.10726581      12.28345960       0.00000000      -0.37755028      -0.39128604       0.59832822      -0.01067446      -0.01542470      -0.01404047      -7.48012304
O        0.62949933       8.78708910       4.51018649       0.00000000      -0.69802597      -0.57203312       0.25376459      -0.00475502      -0.00482933       0.00469144      -7.62059164
O        0.77383840       8.02343871       9.82161580       0.00000000      -0.68885415      -0.56387520      -0.88029873       0.00184515      -0.00116467       0.00337154      -7.76535702
O        5.11720923      -0.25190630       4.61397914       0.00000000       0.47176572      -0.50303648       0.68426844       0.00108334       0.00382455      -0.01250710      -7.74281549
O        2.11539060       2.51654419      11.79846504       0.00000000       0.49021192       0.18696990       0.43958706      -0.00363120       0.00276071       0.00709068      -7.94416618
O        3.55502027      10.07761428       5.29939172       0.00000000       0.94869866      -1.23578731       0.40087580       0.01074046       0.00324306      -0.00386001      -7.79533243
O        3.28177627       9.65311693      11.05716840       0.00000000      -0.29680443       0.40184789       0.30361666       0.00102690       0.01610121      -0.00881602      -8.07335377
O        0.51164574       5.13448372      -2.01637504       0.00000000       0.95486850       0.75835551      -0.16416640      -0.00158274      -0.00380179       0.00625025      -7.68451738
O        0.84905375       6.42810073       2.83397667       0.00000000      -0.75801842      -0.89061631       0.03136994      -0.01115713      -0.00483368       0.00509945      -7.77073145
O        1.64159671      10.28497855      -4.00072125       0.00000000       1.28965684       0.50310003      -0.12264122      -0.02034840       0.00005794      -0.00646347      -7.77279377
O       -0.73973776      11.31343977       0.70063853       0.00000000       0.56805058       0.43964270      -0.71427811       0.01273110       0.00501919      -0.00419819      -7.98195314
O        3.61512835       7.49940816      -3.17134781       0.00000000       0.50762325      -1.40382291       1.37443897      -0.01858759       0.01147940      -0.00454116      -7.47178268
O        3.14215683       4.48145624       3.27624918       0.00000000      -0.09531909       0.44591471      -0.18190521       0.01523302      -0.00596012      -0.01900111      -7.40840435
O        4.65695232       9.82279233      -4.47606013       0.00000000      -1.28545236      -1.21714932      -0.57683250      -0.02066963      -0.00268278       0.00060001      -7.84265471
O        4.08089972       8.68200116       3.01292596       0.00000000       0.40249051       1.48285902      -0.31223618      -0.00109404      -0.00173283       0.01044688      -7.38372183
O       -2.80843258       4.87312030      -1.19608437       0.00000000       0.00008881      -0.41858890      -1.02791999       0.00305641      -0.00036564       0.00184846      -7.74093580
O       -0.51829566       4.15793985       7.10334344       0.00000000       0.62737551      -1.09079266      -0.65899157       0.01174863      -0.00978720       0.01013629      -7.78883362
O       -0.52917083       6.42994817       0.14051944       0.00000000      -0.94969844       0.45524144      -0.20993443      -0.00045440       0.00669360      -0.00438038      -7.87969494
O        0.85095281      12.89747864       4.17496624       0.00000000       0.65832322      -1.82242997       0.01471124      -0.01825239       0.02577377      -0.00189762      -7.79398394
O        3.71092496       2.18692195       1.47129444       0.00000000      -0.24738300       0.13753878      -0.15602695      -0.00206511      -0.03884177      -0.01912129      -7.85902262
O       -0.17238032       6.10039981       5.45752864       0.00000000      -1.56653742      -0.17871403      -0.24401612      -0.00812845       0.00068730       0.02421404      -7.62334394
O        1.83076838       8.31896021       1.26893425       0.00000000      -0.17586019       0.18869442       0.22083262      -0.00736303      -0.00499781       0.01556481      -7.73091269
O        3.58399601      12.67645983       4.00062518       0.00000000       0.87333418       0.93249347       0.63463783      -0.00857127      -0.01491219       0.01008455      -7.73121357
O        2.49069825       1.91099137       4.22661852       0.00000000      -0.16589516       0.34201162      -0.54553597       0.03223417       0.00806248      -0.00016346      -7.76514101
O        1.55813536       5.99634201       8.12854864       0.00000000      -0.89383548      -0.53201426       0.21823653       0.00433697      -0.01122008       0.01442061      -7.86230087
O        1.45346350      10.61611420       2.79690753       0.00000000       0.39722461      -0.66725804      -0.14861658      -0.00020500       0.00036053       0.01007184      -7.74678612
O        2.52315092      12.24178969       6.84592374       0.00000000       0.35296935       0.10677365       0.24816761       0.00431115       0.00245564       0.00392984      -7.95020676
O        6.60857685       2.47028539       0.59549337       0.00000000       0.11661149      -0.75418363       0.75270518      -0.00150185       0.00116722       0.01328525      -7.88140869
O        4.02741648       3.51872592       8.03877831       0.00000000      -0.18951250       1.21843669       0.13503432      -0.00361437      -0.01210449      -0.00295283      -7.73960114
O        5.03445812       8.72873970       0.26888299       0.00000000       0.33019149       0.19598275      -0.21055075      -0.00485602       0.00830013      -0.00506371      -8.00748920
O        2.67843720       8.23285116       7.00432337       0.00000000      -0.21384078      -0.68602716       0.42880904      -0.00879145      -0.00851145      -0.01613253      -7.66233969
O        1.60005687       4.91105265       0.79017562       0.00000000      -0.35629195      -0.76488315       0.08571333       0.00288770      -0.00507802      -0.00152332      -7.83145285
O       -0.32791987       8.12951208       7.37299713       0.00000000      -0.18257220       0.14988479      -0.53462162      -0.00240396       0.00455028       0.00953797      -7.98449755
O        0.18294039       9.33920772      -0.66461093       0.00000000       0.54564274      -0.10034988       0.18724250       0.00003977      -0.00408593       0.00153981      -7.61769485
O        0.27510771      10.75993039       5.95958314       0.00000000       0.49181245      -0.16686894       0.89995914      -0.00003070       0.01221921      -0.01682227      -7.80490303
O        3.85287255       6.57971762       1.59637686       0.00000000       0.03633489       1.10924170      -1.30218259      -0.00025024       0.00457196      -0.00758836      -7.60285568
O        4.48890240       6.19443008       7.21784049       0.00000000      -1.07936054       0.65788996       0.01976039       0.00610317      -0.00156315       0.01182786      -7.79508972
O        2.26902470      11.01563060       0.43079106       0.00000000       0.51823521       0.78553585      -0.04392351      -0.01239237      -0.00609411      -0.00224978      -7.73204803
O        5.32592633      12.21720512       6.75152698       0.00000000      -0.35031058      -0.21314758       0.24142036       0.00413781      -0.00486743      -0.00823411      -7.79167986
O        1.55383801       0.36543059       0.89735522       0.00000000      -0.05269905       0.20937345       0.70556930      -0.02398516      -0.00590706      -0.00036626      -7.69212008
O        1.24169889       2.74592166       9.03608323       0.00000000      -0.53614303       0.56208727      -0.05171255      -0.00559279      -0.02899291       0.02059530      -7.78963041
O       -1.41081463       4.27189415       1.69964130       0.00000000       0.35712313       0.26440704       1.54774867       0.01739407      -0.02210794       0.00297338      -7.68161154
O        0.46012356       4.14188031       3.98857962       0.00000000       0.28015389       1.25810544      -0.39866905       0.02079862       0.01407082       0.01692480      -7.58560276
O        4.76260367       0.82816069      -0.74007592       0.00000000       1.06056718      -0.00333363      -0.76722621       0.00338078      -0.00204362      -0.01763123      -7.60914612
O        2.23960320       4.38543938       5.93783576       0.00000000      -0.00619361       0.02824893      -0.61908583       0.01991157       0.01553437      -0.00686349      -7.84932995
O        2.52520877       6.93015484      -0.93948563       0.00000000       0.23162328       0.85177367      -0.28777390       0.00811071      -0.00020789       0.01346272      -7.64554834
O        2.78682205       6.99746493       4.57089605       0.00000000      -0.87157056      -1.78869591       0.06743552      -0.00862700       0.00778938       0.00196508      -7.73126221
