80
Lattice="5.91569642 0.0 -1.46806091 -0.66675713 11.30069771 -2.68676537 0.0 0.0 12.65297174" Properties=species:S:1:pos:R:3:initial_magmoms:R:1:momenta:R:3:forces:R:3:energies:R:1 energy=-482.4053955078125 stress="-0.035403773188591 -0.00038441273500211537 0.001238315599039197 -0.00038441273500211537 -0.032543472945690155 -0.0014820207143202424 0.001238315599039197 -0.0014820207143202424 -0.03149574622511864" free_energy=-482.4053955078125 pbc="T T T"
Ga       1.99802288       2.11405304       1.55192740       0.10000000       1.70141620       0.59902688       1.71576254      -0.01589709       0.01372944       0.01466013      -3.21067858
Ga       1.98753956       2.10846885       7.89390030       0.10000000      -2.84616504      -0.16308588      -3.13577975      -0.02409046       0.02101112      -0.01944990      -3.21081758
Ga       1.65095737       7.76919430       0.22837824       0.10000000       0.51121572       1.67021180      -0.33301978      -0.01255255       0.00806435      -0.02366309      -3.21114349
Ga       1.65963468       7.75757560       6.54299346       0.10000000      -1.83113626      -0.71345285      -0.66445113      -0.00202202       0.01892676       0.01403870      -3.20997453
Ga       4.95700202       2.11572178       0.82082639       0.10000000      -0.86550222      -1.34193009       1.24609706      -0.02437540       0.00394143       0.00825102      -3.21104312
Ga       4.94435954       2.11570551       7.15281210       0.10000000      -0.50680725      -0.49299044      -1.24807784      -0.01783381      -0.00422906       0.01342154      -3.21159077
Ga       4.60562046       7.77130984      -0.51480141       0.10000000       1.36208040      -0.68549081       1.61074944      -0.00367112      -0.00884108       0.01724245      -3.21152568
Ga       4.62299833       7.75699981       5.81242789       0.10000000       0.09829288      -2.31740249      -0.61316853      -0.02776883       0.00343591       0.00183167      -3.21146393
Ga       0.92250981       4.23592377       3.57623254       0.10000000       0.05797933      -0.15644168      -1.80159590       0.00104081      -0.00166873       0.00571487      -3.21254086
Ga       0.91054850       4.22544174       9.91287803       0.10000000       0.95696176      -0.72389090       0.13215810       0.01295548       0.02565125      -0.00204568      -3.21104383
Ga       0.57725677       9.88657453       2.25105258       0.10000000      -0.32663451       0.98141023       0.15906794       0.01202484       0.01262720      -0.00994992      -3.21121693
Ga       0.58848384       9.87500695       8.57406291       0.10000000       0.82419240      -0.18293677      -0.32764887       0.00617579      -0.00035009      -0.02392798      -3.21059918
Ga       3.87644229       4.24023363       2.84048999       0.10000000      -0.68048318      -0.51478545      -1.12630285       0.01022944      -0.02047509       0.01556408      -3.21044683
Ga       3.86978107       4.23200649       9.18036593       0.10000000       1.13284800       2.21817605      -0.07439389       0.01169720      -0.02029156      -0.00506388      -3.21011949
Ga       3.53739940       9.89342574       1.51539939       0.10000000      -0.84387754      -2.18337244       1.11777753       0.00183393      -0.02795818      -0.01134891      -3.21034312
Ga       3.54457420       9.87332596       7.83003674       0.10000000       1.06757397       0.47562703      -0.42639296       0.01649735       0.01420072       0.01657567      -3.21182728
Ga      -2.82153407       4.84268926       1.19169912       0.10000000      -0.35498697      -2.60350481      -0.36899803       0.00705061      -0.01129878       0.00186551      -3.16070175
Ga       3.10797791       4.83427734       6.05091899       0.10000000      -0.17788361       0.53325187       3.83111445      -0.00670441      -0.00690613      -0.02045568      -3.15985942
Ga      -0.18867388      10.48260752      -0.88815579       0.10000000      -0.17699428       2.78533556       0.37641295       0.00918171       0.02459982      -0.00487290      -3.15958047
Ga      -0.19793906      10.48458772       5.45858140       0.10000000       0.53216820      -1.83019230      -4.39274285       0.00727696       0.00136824      -0.02129360      -3.15959334
Ga       0.13799131       4.84136966       0.45961604       0.10000000       0.87565831      -0.57681641       1.52795804      -0.00010104      -0.00211313      -0.00564223      -3.16010714
Ga       6.06352396       4.82840946       5.30574491       0.10000000      -2.44958053       2.82579916       0.83070969      -0.00023423       0.01665785       0.02354521      -3.16046715
Ga       2.77348153      10.48565468      -1.61841636       0.10000000      -0.51502739       0.14871003       1.80252075      -0.00820035       0.00996557      -0.00301836      -3.15955234
Ga       2.75825224      10.48494461       4.71168904       0.10000000      -0.44029923      -0.06589957      -0.60602778       0.01598494      -0.00651882       0.00306614      -3.16061473
Ga       2.75272438       1.52091774       4.68960543       0.10000000      -1.90637430       0.12477165      -0.82121673       0.02319478      -0.01178288       0.00768032      -3.15833378
Ga       2.77309293       1.50085099      11.00816833       0.10000000      -0.65322722      -2.10451623      -0.67780464      -0.01005993       0.01630882       0.00796273      -3.16182542
Ga       2.43307543       7.16501759       3.34895434       0.10000000       3.51590030      -2.66110793       1.04139972      -0.00429797      -0.00579646      -0.01261127      -3.16148567
Ga       2.41867532       7.15461919       9.67469200       0.10000000       0.82087256       1.03319094      -0.60226510       0.01296398       0.01374350       0.00542023      -3.16027021
Ga       5.71430682       1.51808396       3.95609668       0.10000000       1.55888551      -0.39988003       0.92560047      -0.00120000      -0.00806043      -0.00799763      -3.16060042
Ga       5.72993008       1.50762534      10.27722637       0.10000000      -1.18772861       0.72945975      -0.61915752      -0.00505180      -0.00140847      -0.00411762      -3.15998363
Ga       5.38735619       7.16348821       2.60415514       0.10000000       1.62002703      -0.01578140       0.85309293       0.01209148      -0.00389309       0.02649116      -3.15969276
Ga       5.38145990       7.15535241       8.94909200       0.10000000       0.12578438       0.96866241      -0.51679160       0.00256274       0.01527801      -0.01878724      -3.16214895
O        1.51890652       1.78803881       6.03439750       0.00000000      -0.40877373       0.00388517      -0.18588829      -0.00193698       0.00603499      -0.02047336      -7.92829132
O        1.53559398       1.78673786      12.34542906       0.00000000      -0.34394764      -1.08344194      -0.46059369      -0.01305520      -0.00753598       0.01456913      -7.92857552
O        1.19085251       7.44027454       4.68389054       0.00000000       0.81052446       0.57286536      -0.50493073       0.01746832      -0.01464658       0.00375929      -7.92913294
O        1.18695019       7.43914269      11.01809714       0.00000000       0.36837946       0.88202532       1.01573778      -0.00481125      -0.00452377      -0.00069398      -7.92411470
O        4.47523430       1.79284567       5.29403009       0.00000000       0.42085385       0.72984156      -0.94495445       0.01637032       0.00131084       0.00200197      -7.93249846
O        4.49010393       1.80068019      11.61185585       0.00000000      -0.48041579      -1.72909419      -0.30242912      -0.00156629      -0.04491951       0.00327644      -7.92696047
O        4.15535071       7.43123817       3.95089591       0.00000000       0.17773604      -0.52551433      -0.39692902      -0.00624125       0.01322001      -0.00382477      -7.92410898
O        4.13840505       7.43827872      10.28157279       0.00000000       0.81332042       0.28622862      -0.42758395       0.01543733       0.00725291      -0.00294834      -7.93007135
O        1.37430575       4.56483301      -0.88103124       0.00000000       0.96095666      -0.43874105      -0.77186381       0.00900764      -0.00583579      -0.00146636      -7.92574263
O        1.38903044       4.56124190       5.43613351       0.00000000      -0.16793527       0.68413091       0.48294051      -0.01306134      -0.00132638       0.01173168      -7.92962885
O        1.05352958      10.20906034      -2.22394014       0.00000000      -0.64302950       0.21071120       0.45344724      -0.00421005      -0.00292835      -0.00985244      -7.93253279
O        1.03560456      10.21135936       4.11438747       0.00000000      -0.29616816      -0.62802049       1.17178830       0.02179997       0.00367783      -0.01770625      -7.92607880
O        4.33306034       4.57230183      -1.61551696       0.00000000      -0.25960865       0.50843629      -1.27202665      -0.00189282      -0.01486176      -0.00052309      -7.92583704
O        4.33931949       4.57106185       4.70151535       0.00000000      -0.57980856      -0.33625226       0.21314548       0.01228381      -0.03778907       0.01078242      -7.92789125
O        4.00575413      10.21330295      -2.96347931       0.00000000      -0.57412282       0.38294288      -0.00430730       0.00925877      -0.00639861       0.02092460      -7.92962074
O        4.00087406      10.20806620       3.37652420       0.00000000       0.64955478       1.01736459      -0.57610022      -0.00303929       0.01022201      -0.01683795      -7.92871094
O        0.47030575       3.52119404       1.74491743       0.00000000      -1.05958706      -0.27188408       0.22386672      -0.01617903      -0.00090685       0.00094265      -8.03556538
O        0.46084003       3.51800117       8.07468636       0.00000000       0.03319109       0.30590408      -0.38949737      -0.00408819      -0.00392789       0.00237656      -8.03549290
O        0.12574518       9.17543048       0.41281655       0.00000000      -0.57465823       0.18012371      -0.22102727       0.01051154      -0.00012362      -0.01410964      -8.03554249
O        0.12899801       9.16389455       6.74354313       0.00000000      -0.87139409      -0.08487557      -0.01360545       0.02000804       0.00227720      -0.02957281      -8.03752327
O        3.42646716       3.52345256       1.01113143       0.00000000      -0.18828750      -0.90045049      -0.48138054      -0.00765517      -0.00411475       0.01200134      -8.03505898
O        3.41770970       3.51976903       7.34573671       0.00000000       0.70943657      -0.76927342       0.62622822       0.02497586       0.00150612      -0.01321894      -8.03371334
O        3.08396613       9.17731243      -0.31776753       0.00000000       0.42075835       1.34312594       0.25560382       0.00247686      -0.00074574      -0.01380089      -8.03800106
O        3.09476115       9.16723366       5.99928220       0.00000000      -1.39743580      -0.25201901      -0.39966358      -0.03404847      -0.02522168       0.00257084      -8.03155327
O        2.44396439       2.83135909       3.38924510       0.00000000       0.11565686      -0.22519540       0.64626062       0.00368146      -0.02101830      -0.00091732      -8.03788280
O        2.43983012       2.82092215       9.72177932       0.00000000      -0.17765741      -1.05160907      -0.75507644       0.01156392       0.02891541      -0.00074333      -8.03646946
O        2.10457859       8.48482201       2.06140746       0.00000000       0.08522037      -0.07851667       0.79802344       0.00504802      -0.01272124      -0.02818298      -8.03448009
O        2.11045302       8.46877269       8.37706559       0.00000000      -0.80173335       0.56667386      -0.43107621      -0.01148187       0.01717019       0.01536649      -8.03795433
O        5.40483724       2.82934330       2.65609480       0.00000000       0.57779378       0.18746533      -0.02630986      -0.01124191       0.00114676       0.00412297      -8.03322792
O        5.39839484       2.82617612       8.98784042       0.00000000      -0.32410105       0.25787106       0.87835473      -0.00328288      -0.00560129       0.00264809      -8.03802872
O        5.06358893       8.48143594       1.31670746       0.00000000       0.92564813       0.81454708      -1.18591979      -0.01283263       0.01218072       0.03382573      -8.03565788
O        5.06879475       8.46841938       7.65067310       0.00000000       0.82105694      -0.36641519       0.05783911       0.00088762       0.01810297      -0.01847953      -8.03395748
O        2.30480342       5.40020558       2.83832869       0.00000000       0.60542373       0.87954242       1.04617573       0.02192768      -0.02044699       0.02288416      -7.81397009
O        2.29752272       5.38642325       9.18059839       0.00000000      -0.27218117       0.13410807       0.09730304       0.01411491       0.01523381       0.00273925      -7.81383276
O        1.96645048      11.04861481       1.52389078       0.00000000       0.95187237      -0.44983930       0.29477914       0.00513760      -0.00543293      -0.03039840      -7.81718779
O        1.97369958      11.03431225       7.82437687       0.00000000      -0.00483302       0.07811269       0.54497630       0.01728018       0.01034492       0.03881806      -7.81456089
O        5.26749287       5.39480561       2.10814298       0.00000000      -0.46172184       0.88841542      -0.97024778       0.00306483       0.00073722       0.00820723      -7.81661177
O        5.25785078       5.38991045       8.44698961       0.00000000       0.02696025       1.08909680      -1.00232358       0.00888738      -0.00238869      -0.00150681      -7.81157875
O        4.92436624      11.04917463       0.77758428       0.00000000      -0.41388655      -0.16357913       0.57363030       0.00789204      -0.00978687       0.00705171      -7.81808376
O        4.93586092      11.03732126       7.10494574       0.00000000      -0.20935250      -0.37796288       0.29290754       0.00076150       0.00324023      -0.00147316      -7.81249428
O        0.60916091       0.95334378       2.28222864       0.00000000       0.84182974      -0.82558388       1.57446091      -0.02113982       0.02334863       0.02105887      -7.81753111
O        0.59699253       0.95392607       8.63324197       0.00000000       0.24422163       0.08672078      -0.60367743      -0.00965227       0.00045004      -0.02826534      -7.81552601
O        0.25940577       6.61089172       0.95339938       0.00000000       0.03931056       0.13345873      -0.15108746       0.00303257      -0.00976017      -0.00131753      -7.81271124
O        0.27588688       6.59532004       7.27572645       0.00000000      -0.57714933       1.28113755       0.85099626      -0.02615745       0.02199206       0.00489986      -7.81305361
O        3.56763075       0.95619236       1.55270935       0.00000000      -0.40283357      -0.42324139       0.52740749      -0.01468734       0.00869986       0.01302867      -7.81955004
O        3.55853806       0.95389954       7.88711003       0.00000000       0.09313421       0.59001451       0.40402394      -0.01980047      -0.00455612       0.01122580      -7.81704807
O        3.21937895       6.61104778       0.22213214       0.00000000       0.26540547       1.32349372       0.51540089       0.00019830      -0.01096317       0.00193994      -7.81416702
O        3.23161699       6.60267392       6.54399825       0.00000000      -0.46677112       0.20311312       0.11861483      -0.01971508      -0.00650075      -0.00552593      -7.81640148
