80
Lattice="5.91569642 0.0 -1.46806091 -0.66675713 11.30069771 -2.68676537 0.0 0.0 12.65297174" Properties=species:S:1:pos:R:3:initial_magmoms:R:1:momenta:R:3:forces:R:3:energies:R:1 energy=-480.5640869140625 stress="-0.03409651294350624 0.003349172417074442 0.014164518564939499 0.003349172417074442 -0.03875485062599182 0.013755845837295055 0.014164518564939499 0.013755845837295055 0.019566610455513" free_energy=-480.5640869140625 pbc="T T T"
Ga       1.99586165      -0.14781125       0.72578146       0.10000000      -0.30629099      -3.12432408       0.58443582      -0.00139935      -0.01872243      -0.02551572      -3.13757515
Ga       0.53394500      -0.20414635       7.39744107       0.10000000      -1.58669786      -0.09805710       0.00800670      -0.02291063       0.01525721      -0.00442924      -3.13448858
Ga       0.19093437       5.44509560      -0.28568913       0.10000000      -1.28841951       2.66455534      -1.25431103      -0.02284748      -0.02593018      -0.00135306      -3.13293719
Ga       1.66037597       5.51198732       5.68816825       0.10000000       0.58147477      -0.42550078      -0.81868882       0.00631415      -0.01475994      -0.03851194      -3.13899994
Ga       4.95309315      -0.14494806      -0.00949233       0.10000000       0.44312560       0.90232248      -1.17542165       0.01239169       0.00567776      -0.00857273      -3.13808846
Ga       3.49235115      -0.20395612       6.66168752       0.10000000       0.03129373      -1.09016748      -0.21835252      -0.00853578       0.00805652       0.01338370      -3.13368559
Ga       3.14666235       5.43888428      -1.02435719       0.10000000       0.23967201       2.02834202      -1.37392934       0.00245904       0.01713942       0.01962772      -3.13408065
Ga       4.61837602       5.51115377       4.95214030       0.10000000       0.13809522      -0.01182598      -0.50555607       0.01930360      -0.00947005      -0.02611398      -3.13834214
Ga       0.88452169       3.09834381       2.51546825       0.10000000      -2.49710149       0.29659570      -0.48850551      -0.01549845       0.02753440       0.00467834      -3.13949609
Ga      -0.59678893       3.15889419       9.22911031       0.10000000       0.75838841      -1.09681981       1.50414922      -0.00005217      -0.01682107      -0.03062685      -3.13236117
Ga      -0.94474931       8.81965965       1.53828859       0.10000000       0.86528160      -1.69284028       0.70949756       0.01470096      -0.01945929       0.00153260      -3.13174963
Ga       0.55614753       8.74333136       7.48042698       0.10000000       1.69461886      -0.45154338       0.34675277      -0.01401179       0.02035755       0.01978772      -3.13921571
Ga       3.84454087       3.10227923       1.77781285       0.10000000       0.42707984      -0.53792391      -1.69734888      -0.01348453       0.01174867       0.01469302      -3.13801670
Ga       2.36036392       3.15894504       8.49237923       0.10000000       0.26781427       0.57617030      -0.64033967       0.00005392      -0.01031873       0.00231860      -3.13269687
Ga       2.01453492       8.81461510       0.80686681       0.10000000       1.66539707       2.17938270       0.11673113       0.02578130      -0.00791259       0.00739705      -3.13282561
Ga       3.51380150       8.74822729       6.74430310       0.10000000       1.33649647       2.90730654       2.24070378       0.00058171      -0.00031251       0.01905512      -3.13953018
Ga      -1.31355113       2.49606345      -0.01557151       0.10000000       2.60703821      -0.17573213      -0.20704256      -0.00958183       0.02170213       0.00795095      -3.20051908
Ga       0.16601417       2.56046855       5.98549707       0.10000000       2.35933229       0.19625551      -2.25437609       0.00820090      -0.02932715       0.00358389      -3.20737243
Ga       2.78352787       8.20505037      -2.43301002       0.10000000       1.26231171      -0.96854077       0.76949580       0.01164185      -0.02109073      -0.00458858      -3.20632935
Ga      -1.64392949       8.15273576       4.94852577       0.10000000       0.63023358      -0.28697759       0.00925662      -0.02802362       0.01130149       0.01623181      -3.19925976
Ga       1.64446934       2.49554013      -0.74391330       0.10000000       0.70873451      -0.49695704       0.28902055       0.00267315       0.02277178      -0.01187875      -3.19937992
Ga       3.12602146       2.56121066       5.25541562       0.10000000      -1.35462082       2.63943842      -0.78816348      -0.00019515      -0.01939094      -0.02482894      -3.20698690
Ga       5.74154138       8.20528918      -3.16669028       0.10000000       1.23558856      -3.51721327       2.78772422       0.00180074      -0.01250611      -0.00728101      -3.20745564
Ga       1.31236882       8.15278265       4.21343052       0.10000000      -1.38969046      -0.78086600       2.68500609      -0.00433126       0.00791817       0.01761624      -3.19869971
Ga       1.23979013       0.45815024       3.98799118       0.10000000      -1.79629026       1.69193071       1.15770095      -0.00594864       0.00086286      -0.00372972      -3.19954133
Ga       2.72016501       0.39425153       9.90255348       0.10000000      -0.56838517      -3.10759172       1.92970908      -0.00373037       0.02472813      -0.00313014      -3.20635581
Ga       2.37916196       6.04858702       2.21789845       0.10000000       0.13240441       1.13351718       2.93222223       0.00238595       0.02062804       0.00354046      -3.20743370
Ga       0.90148446       6.10318084       8.95060397       0.10000000      -0.86795502      -0.39023543      -1.67893869       0.02285307       0.00700498       0.01681804      -3.19879413
Ga       4.19540954       0.46101068       3.25178172       0.10000000      -0.76655035      -0.97998687      -1.55113314       0.02287018      -0.01242146      -0.00021833      -3.19969106
Ga       5.68015968       0.39599181       9.17313297       0.10000000      -0.11365678      -1.91540330      -1.31916899      -0.01687514       0.00222839      -0.02914928      -3.20588970
Ga       5.33452362       6.05550219       1.47772414       0.10000000      -1.39880412       1.36952669       0.61604733       0.00803968      -0.02111170       0.02660929      -3.20812154
Ga       3.86103145       6.10397289       8.21654379       0.10000000      -0.11595667      -1.41761993      -0.53830968       0.00579288       0.00774155       0.01443388      -3.19900966
O        0.10683792       0.57616556       5.72304104       0.00000000       0.21602182      -0.19158355       0.66707498      -0.01141679      -0.00593302      -0.01720366      -8.00513077
O        1.57589167       0.52622666      11.64311891       0.00000000       0.00593205       0.02411318      -0.11990064       0.01003217       0.00960168       0.00684035      -7.98473215
O        1.23806562       6.18460667       3.95383667       0.00000000      -0.15951498      -0.63223195      -0.90435851       0.00837550       0.00257823       0.02138478      -7.97600842
O       -0.23011209       6.22248027      10.69024170       0.00000000       0.09969351      -0.63613103       0.13421721      -0.01560387      -0.02202839       0.00755656      -8.00562096
O        3.06522006       0.57753119       4.98874753       0.00000000      -0.85256647      -0.07221244      -0.95178516      -0.01990420      -0.00677550      -0.02437067      -8.00855923
O        4.53305359       0.52356292      10.90720073       0.00000000       0.07398113       0.32452184       0.92833371       0.00675864       0.03588954       0.00189534      -7.98219585
O        4.19716082       6.18463166       3.21818770       0.00000000      -0.27718384      -0.47346056       0.54575975       0.01311132      -0.00169694       0.02265826      -7.97920942
O        2.72511568       6.22195593       9.95478045       0.00000000      -1.19705950       0.11689700       0.73486623      -0.00171585      -0.01723030       0.01411188      -8.00741863
O       -0.17601953       2.38017724      -1.74817830       0.00000000       0.18987492      -0.25169283      -0.84032238       0.00067872       0.00330645      -0.01527092      -8.01057339
O        1.30904107       2.42634812       4.24727386       0.00000000       0.37268249      -0.68606161       0.56452432      -0.00305083      -0.00907925      -0.00450799      -7.97846746
O        0.97491690       8.07344628      -3.43678271       0.00000000       0.28152580       1.42373137      -0.85373863      -0.01909757      -0.01168424      -0.00843582      -7.98085022
O       -0.51342752       8.03823735       3.21315902       0.00000000       0.18055829       0.14110552       0.98119609      -0.01032051       0.00548926       0.00194037      -8.01021481
O        2.78163665       2.37849823      -2.48492008       0.00000000      -0.09030945      -0.33914266       0.35719027      -0.00306142       0.01679412      -0.00851429      -8.00495720
O        4.26913880       2.43046522       3.51221662       0.00000000      -0.07589749       0.67555816       0.09743493      -0.02495753      -0.03476653      -0.00084504      -7.97941589
O        3.93376157       8.07306952      -4.17411440       0.00000000       0.52969045       0.30333579       0.00013143      -0.02523179      -0.00901005       0.01387274      -7.97929430
O        2.44577144       8.03318971       2.48042659       0.00000000      -1.05291065      -0.63532177      -0.28382829      -0.01436111       0.03236395      -0.00794947      -8.00732899
O        0.47370941       2.27704263       0.87385276       0.00000000       0.74070658       1.01774773      -1.30649062       0.01091289       0.01443039      -0.01283818      -7.76474094
O       -1.00502657       2.35666924       7.59410789       0.00000000      -0.47322291       0.66631075      -0.26370888       0.00860059       0.01897417      -0.02350420      -7.77304506
O       -1.34856065       8.00976762      -0.09371225       0.00000000      -0.77426150       0.14720535      -1.20325545       0.02980104      -0.00992896       0.03263044      -7.77073526
O        0.14539654       7.92718292       5.83769450       0.00000000      -0.32072364       0.70568265      -0.37648610      -0.00455542       0.01805775      -0.00991797      -7.75964546
O        3.43522065       2.27842869       0.13641269       0.00000000      -0.18938083      -0.56092612       0.45745417      -0.00721592       0.01803502       0.01304537      -7.76662159
O        1.95298710       2.36288863       6.85627337       0.00000000       1.71357540       0.52456843      -0.20954675       0.00620160      -0.01159397      -0.00999129      -7.77592230
O        1.60859081       8.01332509      -0.82702291       0.00000000      -0.64393374      -0.30055124       0.34209140       0.03394105      -0.02777252       0.01152581      -7.76962137
O        3.10263859       7.93104182       5.10148914       0.00000000      -0.49928534       1.05426749      -0.21307007       0.00176250       0.01077324       0.01512352      -7.75921631
O        2.40522392       0.67549994       2.36510507       0.00000000       0.74410123      -0.83064649      -0.29487355       0.00176231      -0.00292860      -0.00023526      -7.76220798
O        0.93517849       0.60074512       9.03150814       0.00000000       0.72994009       0.41604420       1.09834882      -0.00248443      -0.00201577       0.00393522      -7.76916838
O        0.59303383       6.25035072       1.34728578       0.00000000      -1.21085101      -0.77839517      -0.63565726       0.00639506       0.00760482      -0.01125175      -7.77697515
O        2.07132503       6.32654826       7.33183780       0.00000000       0.76592582      -0.00142918       1.32142216       0.00761664      -0.02247009       0.01482046      -7.76769495
O        5.36362645       0.67717792       1.63192065       0.00000000      -0.04639215      -0.03636218       0.24407473       0.00278842      -0.02184293      -0.01603979      -7.75923538
O        3.89397761       0.59446326       8.29881018       0.00000000       0.31329648       0.63199310      -0.73950754      -0.00170180       0.01827854      -0.00831455      -7.76839876
O        3.54736358       6.24517407       0.61003083       0.00000000      -0.47946909       0.49840182       0.44077580       0.01704919       0.02110477       0.01733094      -7.77292442
O        5.02854530       6.32779290       6.59626645       0.00000000       0.35771257       1.06514295      -1.03115854       0.01240049      -0.03150502       0.01890653      -7.76796055
O        2.37275475       4.14030281       2.18811545       0.00000000      -0.87802663       0.60085224       1.39563197       0.00250740       0.00456022      -0.01532137      -7.92610407
O        0.89814532       4.20023753       8.92494223       0.00000000      -0.59874388      -0.18688247      -0.83326403      -0.01173031      -0.00407448      -0.00158104      -7.94641542
O        0.55727638       9.85657989       1.25365400       0.00000000      -0.09525138      -0.27240124      -0.59227736       0.00293972      -0.01955861      -0.00597130      -7.94394970
O        2.04560025       9.78645763       7.16518237       0.00000000      -0.33347708       0.25989738       0.31397516      -0.00996487       0.02729465       0.00157351      -7.92535591
O        5.33170238       4.14512362       1.45319435       0.00000000      -0.31771196       0.45620351      -0.48924995       0.01552649      -0.00692880      -0.01626082      -7.92326880
O        3.85666042       4.20041493       8.19288894       0.00000000      -0.38511274       0.81254375       0.05661505      -0.00865261       0.00235535      -0.01618356      -7.94702768
O        3.51306276       9.85846325       0.51900159       0.00000000       0.65751065       0.87221434       0.32260445      -0.00167442      -0.03400217      -0.00487829      -7.94083357
O        5.00464016       9.78843522       6.42523041       0.00000000      -0.38649179      -0.81480882      -1.04055599      -0.00111213       0.00657155       0.00846394      -7.92491627
O        0.50323511      -1.18785799       1.04147158       0.00000000       0.04683644      -1.21503979       0.22598726       0.02507016       0.01699097      -0.00898829      -7.92473698
O       -0.96609694      -1.24470369       7.68287592       0.00000000      -0.33192000      -0.34133882      -0.24895553       0.01179105      -0.00180094       0.00896297      -7.94182873
O       -1.30523024       4.40058111       0.01436129       0.00000000      -0.96098049       0.04938778      -0.70012981       0.02406571       0.02372334      -0.00235491      -7.94302130
O        0.17391265       4.46833585       6.01634062       0.00000000       1.31912265       0.45773085       0.20245786      -0.01568722       0.00007476       0.01590419      -7.92725992
O        3.46521292      -1.18824506       0.31087098       0.00000000       0.18081279       0.24411174       0.11271971      -0.02391531       0.01545309      -0.01100907      -7.92464590
O        1.99399466      -1.24410085       6.95662721       0.00000000       0.72985838      -0.91488103       1.14240393      -0.00844838      -0.00873321      -0.00853401      -7.94350433
O        1.65218395       4.39949145      -0.71399155       0.00000000      -0.51511254       1.29792439      -0.74451024      -0.01085588       0.01612546      -0.00878168      -7.94396925
O        3.12942895       4.46990872       5.27349328       0.00000000      -0.43753097      -0.63521026       0.01246547      -0.00378670      -0.01617517       0.03724318      -7.92823029
